37
Properties=species:S:1:pos:R:3 pbc="F F F"
C        6.30570100       6.89274300      16.32899000
C        7.07350200       7.50908200      15.22099400
C        6.63656300       8.73768800      14.70988100
H        5.75461900       9.20420100      15.14949600
C        7.31034000       9.33854100      13.65642400
H        6.93970700      10.28089800      13.25069900
C        8.87891800       7.50501300      13.61199700
H        9.77445400       7.03038900      13.20842800
C        8.20538100       6.89967600      14.66473600
H        8.55767600       5.95264300      15.06996500
C        8.44210600       8.73125600      13.08343500
C        9.27714300      10.76662800      11.87510900
H        8.86668800      11.40294100      12.66426200
C        9.15614000       9.36935800      11.96145100
C        9.77236800       8.61806000      10.95535700
H        9.71771200       7.52877000      10.98861000
C       10.46335200       9.24967900       9.91670300
C       10.47496300      10.65512300       9.92513500
H       10.94769500      11.20639600       9.10747100
C       11.14879000       8.48673100       8.85630600
C       10.64389900       7.25907300       8.39218100
H        9.70229500       6.87485900       8.78770200
C       11.30974300       6.53698400       7.41299900
H       10.91931700       5.58652100       7.04881100
C       12.50203700       7.01508500       6.85398500
C       12.99697100       8.24990600       7.29478600
H       13.89975300       8.69115900       6.86391800
C       12.33489200       8.97116000       8.28128100
H       12.75925200       9.91520900       8.62539800
C       13.16169900       6.16787300       5.81326900
O       14.43632900       6.50957900       5.44749100
O       12.62944500       5.20618100       5.29601600
N        9.90728300      11.39707700      10.88028700
O        5.29379400       7.36009400      16.82688900
O        6.84669900       5.70826600      16.75263200
H        6.26562600       5.38889500      17.47610800
H       14.76068400       7.25389500       5.99348500
