37
Properties=species:S:1:pos:R:3 pbc="F F F"
C      8.773400    9.153000   17.322200
C      9.516900    9.793900   16.205700
C      9.104500   11.014600   15.701100
H      8.233944   11.514115   16.108198
C      9.773000   11.623700   14.652200
H      9.386110   12.555952   14.261339
C     11.306700    9.821400   14.595800
H     12.190288    9.324225   14.216290
C     10.616400    9.224800   15.667200
H     10.992618    8.280965   16.042180
C     10.894400   10.995900   14.082700
C     11.709600   13.023100   12.876000
H     11.296438   13.640089   13.662287
C     11.597200   11.632800   12.946500
C     12.206300   10.880300   11.937200
H     12.162482    9.800632   11.977260
C     12.893500   11.517500   10.888300
C     12.918500   12.905700   10.913700
H     13.406921   13.443164   10.112175
C     13.596300   10.758800    9.839500
C     13.096500    9.574700    9.419400
H     12.164174    9.189073    9.811203
C     13.730600    8.825000    8.393200
H     13.291064    7.887589    8.075559
C     14.917600    9.306000    7.840600
C     15.386100   10.493000    8.283200
H     16.264543   10.963278    7.867334
C     14.739500   11.202100    9.284100
H     15.190853   12.129248    9.614437
C     15.629700    8.525100    6.822800
O     16.727700    8.990500    6.417900
O     15.098100    7.457200    6.424900
N     12.357100   13.644100   11.888100
O      7.738900    9.704600   17.749300
O      9.242900    8.062500   17.735800
H      8.793255    7.550080   18.485613
H     17.418551    9.430086    7.013418
