62
Properties=species:S:1:pos:R:3 pbc="F F F"
C       13.14960700       6.16773800       6.52400600
C       12.29467100       7.30011400       7.00133700
C       11.78153000       7.39908800       8.30104800
H       11.96977100       6.62349800       9.04832600
C       10.99018100       8.48018300       8.67286300
H       10.60536100       8.53988600       9.69070200
C       10.71014200       9.50261000       7.75701600
C       11.99640000       8.31403100       6.08019600
H       12.38817500       8.22500600       5.06664000
C       11.23169000       9.40769900       6.45811600
H       11.03278600      10.21209300       5.74983500
C        9.95540100      10.71417100       8.15757900
N       10.49207300      11.87740100       7.76167700
O       13.66735400       5.32935800       7.47328400
O       13.39716500       5.97098300       5.35169700
C        5.63830400       6.13974400      10.61616300
C        6.47905500       7.27989400      10.12550700
C        6.97038100       7.39446000       8.81845400
H        6.74985000       6.64421700       8.05370800
C        7.74196900       8.48737000       8.44015700
H        8.10333100       8.56302400       7.41480600
C        8.03223200       9.50352300       9.35927500
C        6.77387600       8.29808700      11.04419600
H        6.38624900       8.20379300      12.05902400
C        7.52935400       9.39785200      10.66437400
H        7.73893300      10.19459800      11.37832600
C        8.78334800      10.71488600       8.95406500
N        8.24581300      11.87851800       9.34553000
O        5.40462400       5.10537700       9.75218700
O        5.16377000       6.10003100      11.73326400
C       13.11875800      17.61734300       6.62064900
C       12.27143800      16.44912100       6.96799700
C       11.78564200      16.35405600       8.27876300
H       12.04369000      17.13797000       8.99106700
C       10.99902500      15.27527000       8.65731800
H       10.63475800      15.20837600       9.68281900
C       10.70330400      14.25397800       7.74094000
C       11.96841500      15.44002700       6.04524500
H       12.34451000      15.51042400       5.02602200
C       11.20594800      14.34688700       6.43519800
H       10.99897600      13.54371800       5.72802800
C        9.95400300      13.04210800       8.15112700
O       13.46823500      18.48291800       7.40667800
O       13.48663500      17.63587500       5.30292200
C        5.63638400      17.61262700      10.61557000
C        6.47847500      16.47407600      10.12519900
C        6.97080400      16.36110000       8.81861100
H        6.75263000      17.11250100       8.05453500
C        7.74456200      15.26994800       8.44053200
H        8.10903400      15.19541500       7.41615800
C        8.03466100      14.25366500       9.35943700
C        6.77467500      15.45659100      11.04407900
H        6.38947900      15.55070800      12.05957900
C        7.53125400      14.35807300      10.66443000
H        7.74228000      13.56167500      11.37844700
C        8.78371400      13.04158400       8.95239100
O        5.40219200      18.64747800       9.75230000
O        5.15930200      17.65050000      11.73157300
H        5.86029100       5.25297400       8.89906800
H       13.46397400       5.65683700       8.37243700
H        5.86482000      18.50484200       8.90219100
H       14.04551000      18.43554100       5.18979000
