62
Properties=species:S:1:pos:R:3 pbc="F F F"
C     13.721600   11.331000    6.859100
C     12.836800   12.484500    7.252800
C     12.349400   12.577200    8.545200
H     12.498987   11.806671    9.286058
C     11.574800   13.658700    8.927400
H     11.221940   13.714682    9.949821
C     11.294000   14.674000    8.033900
C     12.534500   13.485100    6.348800
H     12.901762   13.448764    5.330808
C     11.783600   14.582300    6.745600
H     11.580763   15.364911    6.024058
C     10.551900   15.892300    8.453600
N     11.107000   17.049100    8.056800
O     14.055300   10.531300    7.755400
O     14.068700   11.271000    5.651200
C      6.209200   11.331000   10.810400
C      7.094000   12.484500   10.416700
C      7.581400   12.577200    9.124300
H      7.358524   11.858002    8.352929
C      8.356000   13.658700    8.742100
H      8.693720   13.724546    7.715038
C      8.636800   14.674000    9.635600
C      7.396300   13.485100   11.320700
H      7.029056   13.448760   12.338696
C      8.147200   14.582300   10.923900
H      8.350034   15.364920   11.645439
C      9.378900   15.892300    9.215900
N      8.823800   17.049100    9.612700
O      5.875500   10.531300    9.914100
O      5.862100   11.271000   12.018300
C     13.721600   22.767300    6.859100
C     12.836800   21.613800    7.252800
C     12.349400   21.521100    8.545200
H     12.580519   22.299832    9.259770
C     11.574800   20.439600    8.927400
H     11.231798   20.379518    9.952722
C     11.294000   19.424300    8.033900
C     12.534500   20.613200    6.348800
H     12.907600   20.676971    5.335303
C     11.783600   19.516000    6.745600
H     11.579851   18.734379    6.023336
C     10.551900   18.206000    8.453600
O     14.055300   23.567000    7.755400
O     14.068700   22.827300    5.651200
C      6.209200   22.767300   10.810400
C      7.094000   21.613800   10.416700
C      7.581400   21.521100    9.124300
H      7.358427   22.240254    8.352913
C      8.356000   20.439600    8.742100
H      8.693579   20.373668    7.715001
C      8.636800   19.424300    9.635600
C      7.396300   20.613200   11.320700
H      7.029047   20.649535   12.338695
C      8.147200   19.516000   10.923900
H      8.350021   18.733372   11.645433
C      9.378900   18.206000    9.215900
O      5.875500   23.567000    9.914100
O      5.862100   22.827300   12.018300
H      6.501208   10.167496    9.208113
H     14.242561   10.787277    8.716118
H      6.501222   23.930832    9.208144
H     14.672770   23.569386    5.317262
