15
Properties=species:S:1:pos:R:3 pbc="F F F"
S     17.159900   16.548700   11.038500
O     19.656900   19.059700    9.443300
O     19.278600   18.422500   11.554300
O     15.068400   14.610800   11.459300
O     14.329500   14.486200    9.385000
C     17.567900   17.180300    8.653600
H     17.968036   17.632641    7.755582
C     16.515700   16.258400    8.650300
H     16.026112   15.933067    7.741394
C     19.092300   18.363700   10.331400
C     16.164000   15.838000    9.863200
C     18.016000   17.442400    9.888200
C     15.111600   14.906300   10.236400
H     14.365368   13.977128   11.822086
H     18.989437   17.760477   12.262014
