15
Properties=species:S:1:pos:R:3 pbc="F F F"
S        7.77612900       7.52067300       8.38269000
O       10.30263900      10.03708300       6.67048800
O       10.16550400       9.46254800       8.82668500
O        5.62477500       5.58262700       8.80566400
O        4.99074400       5.33489400       6.63041400
C        8.19998400       8.16786900       5.92522000
H        8.63979700       8.65203900       5.05500100
C        7.14285300       7.24399800       5.90263000
H        6.62554300       6.88951700       5.01309600
C        9.76090100       9.36356700       7.52283300
C        6.79084800       6.79716400       7.16456700
C        8.66154500       8.42486300       7.20647800
C        5.71864700       5.84291800       7.46612600
H        4.89305100       4.93762100       8.91770100
H        9.66254200       8.86191100       9.41506500
