40
Properties=species:S:1:pos:R:3 pbc="F F F"
O     19.824900   15.060300   15.419100
O     19.180100   13.636800   17.017900
O     20.679800    9.046700   16.816000
O     22.151100    8.372200   15.279100
O     24.925700   14.237000    5.762600
O     25.594700   16.360100    5.775900
O     24.007400   19.340500    9.344900
O     22.626200   18.557600   10.915500
N     22.252300   13.628900   11.499600
H     22.152426   14.487799   12.073118
N     22.451400   11.536900   10.968800
N     22.885700   12.268200    9.907500
C     20.411900   12.809700   15.196000
C     20.508500   11.550400   15.758600
H     20.085817   11.400119   16.743326
C     21.180500   10.527200   15.074800
C     21.581900   12.039200   13.244700
C     20.960100   13.034600   13.946100
H     20.774122   14.017883   13.547158
C     21.710300   10.766400   13.828900
H     22.182796    9.990316   13.245210
C     22.084500   12.385600   11.919100
C     22.740000   13.537500   10.276400
C     24.183500   15.623300    7.497500
C     24.042700   16.896600    8.029500
H     24.442554   17.701549    7.436722
C     23.414400   17.074400    9.266900
C     22.968000   15.957600    9.967100
H     22.495013   16.137053   10.915218
C     23.131700   14.684000    9.466000
C     23.723600   14.510300    8.211000
H     23.859561   13.523538    7.787571
C     19.741300   13.916000   15.946800
C     21.358500    9.200700   15.773500
C     24.959700   15.395400    6.233100
C     23.333800   18.428900    9.892600
H     20.308399   15.177039   14.537633
H     22.912798    8.594598   14.652435
H     24.036454   19.517467    8.350372
H     25.872987   14.477513    5.921984
