40
Properties=species:S:1:pos:R:3 pbc="F F F"
O        5.58301600      11.72314700      15.08374400
O        4.64017000      10.00020100      16.15752100
O        6.54892900       5.42440600      15.64075900
O        8.18028200       5.02394100      14.16964900
O       11.01455600      10.71625700       4.87895100
O       11.40292900      12.92749700       4.52061400
O        9.68856100      16.27929100       8.01551700
O        8.52371600      15.39876600       9.69728200
N        8.18458400      10.48318300      10.62390800
H        7.98896200      11.35846100      11.09824800
N        8.40085200       8.33834400      10.18877600
N        8.90972400       9.04150100       9.12723500
C        6.18836800       9.44211100      14.42662800
C        6.35262200       8.13542900      14.88751500
H        5.92400500       7.83982900      15.84521400
C        7.05730500       7.19986300      14.12484500
C        7.39638900       8.87251300      12.38994900
C        6.71117600       9.80492400      13.18018100
H        6.52682800      10.80830100      12.78604700
C        7.56068400       7.56552700      12.87603600
H        8.07021900       6.85710100      12.21819700
C        7.96438000       9.21349000      11.09141000
C        8.78574700      10.33762300       9.39833800
C       10.26359500      12.24905700       6.52060500
C       10.05333700      13.57421000       6.92345400
H       10.37465100      14.35833600       6.23215200
C        9.44114000      13.83972400       8.14566700
C        9.02877800      12.77199700       8.94950400
H        8.54792400      13.04451300       9.89007700
C        9.21910800      11.44542500       8.55575200
C        9.84683700      11.18846800       7.32569400
H       10.01027000      10.15702700       7.01776700
C        5.40543300      10.38089400      15.29680200
C        7.21945000       5.82556300      14.71331200
C       10.94923700      12.03444300       5.21826900
C        9.17486900      15.21453800       8.68771400
H        6.32599300      11.88659200      14.46576300
H        8.68357800       5.48663500      13.46912900
H       10.22451000      15.98848200       7.25004900
H       11.48501300      10.66774500       4.01773200
