36
Properties=species:S:1:pos:R:3 pbc="F F F"
C      8.872800   11.840500   15.079100
C      9.340800   12.088100   13.818200
H      9.045689   13.008133   13.328968
C     10.169500   11.193300   13.165200
C     10.655300   11.471600   11.836900
C      9.245100   10.658500   15.729800
H      8.883182   10.449541   16.727038
C      7.912400   12.779000   15.747200
O      7.522800   12.465900   16.905900
O      7.531300   13.776500   15.066900
C     10.082600    9.745100   15.079100
C     11.588600   13.408500    7.498500
C     12.798400   11.313000    7.498500
C     10.531000   10.026600   13.818200
C     11.140200   13.126900    8.759400
C     12.330400   11.065500    8.759400
H     11.180230    9.311133   13.328780
H     12.625374   10.145532    9.248818
H     10.494176   13.827370    9.276292
C     11.500800   11.961900    9.412400
C     11.016800   11.680300   10.740700
C     12.426100   12.495100    6.847800
H     12.862009   12.666228    5.876576
C     10.415200    8.444100   15.747200
C     13.758800   10.374500    6.830400
C     11.256000   14.709500    6.830400
O      9.949200    8.263200   16.905900
O     14.148400   10.687600    5.671700
O     11.722000   14.890400    5.671700
O     11.088400    7.615300   15.066900
O     14.139900    9.377100    7.510700
O     10.582800   15.538300    7.510700
H      9.422139    8.998374   17.359870
H      7.895898   11.641814   17.359821
H     13.775272   11.511663    5.217763
H     11.738784   14.181013    4.950170
