36
Properties=species:S:1:pos:R:3 pbc="F F F"
C        6.31751100       9.20493700      15.01149600
C        6.79988100       9.47245800      13.72897800
H        6.50004600      10.40271500      13.24741100
C        7.64581800       8.56400500      13.07159900
C        8.11912000       8.84142100      11.76749800
C        6.68760300       8.01302200      15.64735900
H        6.29980400       7.79079700      16.64758900
C        5.40441900      10.24437900      15.60131300
O        4.94029800      10.04518500      16.87116600
O        5.06736500      11.23825700      14.99431300
C        7.53154500       7.09334400      15.01104100
C        9.10896900      10.83693400       7.40672900
C       10.33617000       8.73442600       7.40896600
C        8.00296100       7.37425000      13.72697400
C        8.63332500      10.55302400       8.68766200
C        9.84623400       8.45913800       8.68684700
H        8.65355600       6.64541300      13.24429900
H       10.14769000       7.52926100       9.16905200
H        7.98351800      11.28100600       9.17218100
C        8.99483000       9.36364700       9.34317700
C        8.51905700       9.08365400      10.64526900
C        9.96863200       9.92919600       6.77532000
H       10.39040800      10.18702200       5.79760400
C        7.98036200       5.78755300      15.60627700
C       11.24818100       7.69745300       6.81522700
C        8.66683400      12.13996900       6.80279000
O        7.57133900       5.48773800      16.87492900
O       11.69617200       7.89866800       5.54047600
O        8.89131000      12.32505300       5.46680700
O        8.68299900       5.00352600      15.00508800
O       11.58951500       6.70222700       7.41739900
O        8.12802400      13.01478200       7.44525500
H        7.03748500       6.20912800      17.26200100
H        5.30009500       9.22550300      17.26344600
H       11.33251900       8.72316600       5.16184600
H        9.23721800      11.51172500       5.04922400
