112

C 28.184200 6.256600 12.281300
C 28.927700 6.897500 11.164800
C 28.515300 8.118200 10.660200
H 27.775100 8.536800 11.032300
C 29.183800 8.727300 9.611300
H 28.893300 9.548800 9.284300
C 30.717500 6.925000 9.554900
H 31.464000 6.503300 9.196900
C 30.027200 6.328400 10.626300
H 30.333300 5.522500 10.970300
C 30.305200 8.099500 9.041800
C 31.120400 10.126700 7.835100
H 30.723700 10.642100 8.503300
C 31.008000 8.736400 7.905600
C 31.617100 7.983900 6.896300
H 31.570200 7.056200 6.921600
C 32.304300 8.621100 5.847400
C 32.329300 10.009300 5.872800
H 32.757200 10.454700 5.179200
C 33.007100 7.862400 4.798600
C 32.507300 6.678300 4.378500
H 31.732700 6.347200 4.770400
C 33.141400 5.928600 3.352300
H 32.772800 5.129000 3.056200
C 34.328400 6.409600 2.799700
C 34.796900 7.596600 3.242300
H 35.574700 7.946400 2.867300
C 34.150300 8.305700 4.243200
H 34.515800 9.105300 4.542100
C 35.040500 5.628700 1.781900
O 36.138500 6.094100 1.377000
O 34.508900 4.560800 1.384000
Cu 26.020200 6.012000 14.097000
Cu 27.808200 4.079400 14.097000
Cu 31.910100 12.762700 6.924700
Cu 31.236000 15.618000 8.448100
N 31.767900 10.747700 6.847200
O 27.149700 6.808200 12.708400
O 28.653700 5.166100 12.694900
O 24.454700 7.484100 14.097000
O 29.255600 2.505100 14.097000
O 32.170300 14.683700 7.048500
O 32.309900 12.499400 8.862500
O 32.043800 14.622500 9.922000
O 34.156600 13.981200 9.002600
O 33.342200 12.927300 10.963500
O 29.953400 13.087900 6.225200
O 28.693400 11.948700 7.945100
S 32.985200 13.497400 9.703200
S 28.719900 13.101900 7.048500
O 28.705900 14.335400 7.871800
O 27.566700 13.075400 6.151900
C 34.287800 24.979400 12.281300
C 33.544300 24.338500 11.164800
C 33.956700 23.117800 10.660200
H 34.696900 22.699200 11.032300
C 33.288200 22.508700 9.611300
H 33.578700 21.687200 9.284300
C 31.754500 24.311000 9.554900
H 31.008000 24.732700 9.196900
C 32.444800 24.907600 10.626300
H 32.138700 25.713500 10.970300
C 32.166800 23.136500 9.041800
C 31.351600 21.109300 7.835100
H 31.748300 20.593900 8.503300
C 31.464000 22.499600 7.905600
C 30.854900 23.252100 6.896300
H 30.901800 24.179800 6.921600
C 30.167700 22.614900 5.847400
C 30.142700 21.226700 5.872800
H 29.714800 20.781300 5.179200
C 29.464900 23.373600 4.798600
C 29.964700 24.557700 4.378500
H 30.739300 24.888800 4.770400
C 29.330600 25.307400 3.352300
H 29.699200 26.107000 3.056200
C 28.143600 24.826400 2.799700
C 27.675100 23.639400 3.242300
H 26.897300 23.289600 2.867300
C 28.321700 22.930300 4.243200
H 27.956200 22.130700 4.542100
C 27.431500 25.607300 1.781900
O 26.333500 25.141900 1.377000
O 27.963100 26.675200 1.384000
Cu 30.561900 18.473300 6.924700
N 30.704100 20.488300 6.847200
O 35.322300 24.427800 12.708400
O 33.818300 26.069900 12.694900
O 30.162100 18.736600 8.862500
O 30.428200 16.613500 9.922000
O 28.315400 17.254800 9.002600
O 29.129800 18.308700 10.963500
S 29.486800 17.738600 9.703200
O 25.141900 4.902500 15.474000
O 25.141900 4.902500 12.720000
O 26.675200 3.272900 15.481000
O 26.675200 3.272900 12.713000
Cu 25.224000 26.020200 0.000000
Cu 36.451800 25.224000 14.097000
Cu 37.248000 5.215800 0.000000
Cu 27.156600 27.808200 0.000000
Cu 34.663800 27.156600 14.097000
Cu 35.315400 3.427800 0.000000
Cu 28.380700 16.292100 7.172300
Cu 34.091300 14.943900 7.172300
Cu 31.236000 15.618000 5.648900
O 27.149700 6.808200 15.485600
O 28.653700 5.166100 15.499100
O 30.301700 16.552300 7.048500
O 29.599200 18.538600 5.094400
O 32.872800 12.697400 5.094400
O 32.518600 18.148100 6.225200
