37

C 6.365100 0.807200 0.381400
O 6.900200 0.773300 1.474600
O 6.958300 1.284400 -0.732700
C 5.004100 0.283000 0.130600
C 4.623800 -0.910100 0.747900
C 3.342400 -1.427500 0.534800
C 2.417000 -0.756800 -0.284100
C 2.813600 0.454000 -0.880100
C 4.095200 0.975700 -0.674500
C 1.068900 -1.299200 -0.501000
C 0.864100 -2.597100 -0.966800
N -0.349000 -3.153300 -1.188300
C -1.426900 -2.376900 -0.930300
C -1.366800 -1.064400 -0.463200
C -0.083200 -0.537100 -0.251800
C -2.580000 -0.276900 -0.201300
C -3.577500 -0.136200 -1.181900
C -4.734500 0.608400 -0.932200
C -4.906900 1.235300 0.303600
C -3.937000 1.093500 1.300300
C -2.781600 0.347500 1.043100
C -6.147400 2.009700 0.535600
O -7.238600 1.655900 0.127000
O -5.933600 3.163200 1.202400
H 6.484600 1.086900 -1.562300
H 5.320000 -1.436800 1.398600
H 3.065000 -2.355500 1.033500
H 2.119200 1.002900 -1.515000
H 4.358800 1.930900 -1.122400
H 1.702500 -3.251800 -1.194000
H -2.381700 -2.867100 -1.108100
H 0.021400 0.482800 0.114500
H -3.460300 -0.604200 -2.158600
H -5.498800 0.696800 -1.702700
H -4.080900 1.525000 2.288100
H -2.044300 0.232300 1.836900
H -4.994800 3.402200 1.314100
