744
Lattice="31.236 0.0 0.0 0.0 31.236 0.0 0.0 0.0 28.194" Properties=species:S:1:pos:R:3:spacegroup_kinds:I:1 spacegroup="P 42/m b c" unit_cell=conventional pbc="T T T"
C       28.18424280       6.25657080      12.28130640        0
C       24.97942920      28.18424280      26.37830640        0
C        3.05175720      24.97942920      12.28130640        0
C        6.25657080       3.05175720      26.37830640        0
C       12.56624280       9.36142920      15.91269360        0
C       21.87457080      12.56624280       1.81569360        0
C       18.66975720      21.87457080      15.91269360        0
C        9.36142920      18.66975720       1.81569360        0
C        3.05175720      24.97942920      15.91269360        0
C        6.25657080       3.05175720       1.81569360        0
C       28.18424280       6.25657080      15.91269360        0
C       24.97942920      28.18424280       1.81569360        0
C       18.66975720      21.87457080      12.28130640        0
C        9.36142920      18.66975720      26.37830640        0
C       12.56624280       9.36142920      12.28130640        0
C       21.87457080      12.56624280      26.37830640        0
C       28.92765960       6.89753352      11.16482400        1
C       24.33846648      28.92765960      25.26182400        1
C        2.30834040      24.33846648      11.16482400        1
C        6.89753352       2.30834040      25.26182400        1
C       13.30965960       8.72046648      17.02917600        1
C       22.51553352      13.30965960       2.93217600        1
C       17.92634040      22.51553352      17.02917600        1
C        8.72046648      17.92634040       2.93217600        1
C        2.30834040      24.33846648      17.02917600        1
C        6.89753352       2.30834040       2.93217600        1
C       28.92765960       6.89753352      17.02917600        1
C       24.33846648      28.92765960       2.93217600        1
C       17.92634040      22.51553352      11.16482400        1
C        8.72046648      17.92634040      25.26182400        1
C       13.30965960       8.72046648      11.16482400        1
C       22.51553352      13.30965960      25.26182400        1
C       28.51534440       8.11823640      10.66015140        2
C       23.11776360      28.51534440      24.75715140        2
C        2.72065560      23.11776360      10.66015140        2
C        8.11823640       2.72065560      24.75715140        2
C       12.89734440       7.49976360      17.53384860        2
C       23.73623640      12.89734440       3.43684860        2
C       18.33865560      23.73623640      17.53384860        2
C        7.49976360      18.33865560       3.43684860        2
C        2.72065560      23.11776360      17.53384860        2
C        8.11823640       2.72065560       3.43684860        2
C       28.51534440       8.11823640      17.53384860        2
C       23.11776360      28.51534440       3.43684860        2
C       18.33865560      23.73623640      10.66015140        2
C        7.49976360      18.33865560      24.75715140        2
C       12.89734440       7.49976360      10.66015140        2
C       23.73623640      12.89734440      24.75715140        2
H       27.77505120       8.53679880      11.03231220        3
H       22.69920120      27.77505120      25.12931220        3
H        3.46094880      22.69920120      11.03231220        3
H        8.53679880       3.46094880      25.12931220        3
H       12.15705120       7.08120120      17.16168780        3
H       24.15479880      12.15705120       3.06468780        3
H       19.07894880      24.15479880      17.16168780        3
H        7.08120120      19.07894880       3.06468780        3
H        3.46094880      22.69920120      17.16168780        3
H        8.53679880       3.46094880       3.06468780        3
H       27.77505120       8.53679880      17.16168780        3
H       22.69920120      27.77505120       3.06468780        3
H       19.07894880      24.15479880      11.03231220        3
H        7.08120120      19.07894880      25.12931220        3
H       12.15705120       7.08120120      11.03231220        3
H       24.15479880      12.15705120      25.12931220        3
C       29.18379480       8.72733840       9.61133460        4
C       22.50866160      29.18379480      23.70833460        4
C        2.05220520      22.50866160       9.61133460        4
C        8.72733840       2.05220520      23.70833460        4
C       13.56579480       6.89066160      18.58266540        4
C       24.34533840      13.56579480       4.48566540        4
C       17.67020520      24.34533840      18.58266540        4
C        6.89066160      17.67020520       4.48566540        4
C        2.05220520      22.50866160      18.58266540        4
C        8.72733840       2.05220520       4.48566540        4
C       29.18379480       8.72733840      18.58266540        4
C       22.50866160      29.18379480       4.48566540        4
C       17.67020520      24.34533840       9.61133460        4
C        6.89066160      17.67020520      23.70833460        4
C       13.56579480       6.89066160       9.61133460        4
C       24.34533840      13.56579480      23.70833460        4
H       28.89330000       9.54884520       9.28428420        5
H       21.68715480      28.89330000      23.38128420        5
H        2.34270000      21.68715480       9.28428420        5
H        9.54884520       2.34270000      23.38128420        5
H       13.27530000       6.06915480      18.90971580        5
H       25.16684520      13.27530000       4.81271580        5
H       17.96070000      25.16684520      18.90971580        5
H        6.06915480      17.96070000       4.81271580        5
H        2.34270000      21.68715480      18.90971580        5
H        9.54884520       2.34270000       4.81271580        5
H       28.89330000       9.54884520      18.90971580        5
H       21.68715480      28.89330000       4.81271580        5
H       17.96070000      25.16684520       9.28428420        5
H        6.06915480      17.96070000      23.38128420        5
H       13.27530000       6.06915480       9.28428420        5
H       25.16684520      13.27530000      23.38128420        5
C       30.71748240       6.92502120       9.55494660        6
C       24.31097880      30.71748240      23.65194660        6
C        0.51851760      24.31097880       9.55494660        6
C        6.92502120       0.51851760      23.65194660        6
C       15.09948240       8.69297880      18.63905340        6
C       22.54302120      15.09948240       4.54205340        6
C       16.13651760      22.54302120      18.63905340        6
C        8.69297880      16.13651760       4.54205340        6
C        0.51851760      24.31097880      18.63905340        6
C        6.92502120       0.51851760       4.54205340        6
C       30.71748240       6.92502120      18.63905340        6
C       24.31097880      30.71748240       4.54205340        6
C       16.13651760      22.54302120       9.55494660        6
C        8.69297880      16.13651760      23.65194660        6
C       15.09948240       8.69297880       9.55494660        6
C       22.54302120      15.09948240      23.65194660        6
H        0.22802280       6.50333520       9.19688280        7
H       24.73266480       0.22802280      23.29388280        7
H       31.00797720      24.73266480       9.19688280        7
H        6.50333520      31.00797720      23.29388280        7
H       15.84602280       9.11466480      18.99711720        7
H       22.12133520      15.84602280       4.90011720        7
H       15.38997720      22.12133520      18.99711720        7
H        9.11466480      15.38997720       4.90011720        7
H       31.00797720      24.73266480      18.99711720        7
H        6.50333520      31.00797720       4.90011720        7
H        0.22802280       6.50333520      18.99711720        7
H       24.73266480       0.22802280       4.90011720        7
H       15.38997720      22.12133520       9.19688280        7
H        9.11466480      15.38997720      23.29388280        7
H       15.84602280       9.11466480       9.19688280        7
H       22.12133520      15.84602280      23.29388280        7
C       30.02716680       6.32841360      10.62631860        8
C       24.90758640      30.02716680      24.72331860        8
C        1.20883320      24.90758640      10.62631860        8
C        6.32841360       1.20883320      24.72331860        8
C       14.40916680       9.28958640      17.56768140        8
C       21.94641360      14.40916680       3.47068140        8
C       16.82683320      21.94641360      17.56768140        8
C        9.28958640      16.82683320       3.47068140        8
C        1.20883320      24.90758640      17.56768140        8
C        6.32841360       1.20883320       3.47068140        8
C       30.02716680       6.32841360      17.56768140        8
C       24.90758640      30.02716680       3.47068140        8
C       16.82683320      21.94641360      10.62631860        8
C        9.28958640      16.82683320      24.72331860        8
C       14.40916680       9.28958640      10.62631860        8
C       21.94641360      14.40916680      24.72331860        8
H       30.33327960       5.52252480      10.97028540        9
H       25.71347520      30.33327960      25.06728540        9
H        0.90272040      25.71347520      10.97028540        9
H        5.52252480       0.90272040      25.06728540        9
H       14.71527960      10.09547520      17.22371460        9
H       21.14052480      14.71527960       3.12671460        9
H       16.52072040      21.14052480      17.22371460        9
H       10.09547520      16.52072040       3.12671460        9
H        0.90272040      25.71347520      17.22371460        9
H        5.52252480       0.90272040       3.12671460        9
H       30.33327960       5.52252480      17.22371460        9
H       25.71347520      30.33327960       3.12671460        9
H       16.52072040      21.14052480      10.97028540        9
H       10.09547520      16.52072040      25.06728540        9
H       14.71527960      10.09547520      10.97028540        9
H       21.14052480      14.71527960      25.06728540        9
C       30.30516720       8.09949480       9.04181580       10
C       23.13650520      30.30516720      23.13881580       10
C        0.93083280      23.13650520       9.04181580       10
C        8.09949480       0.93083280      23.13881580       10
C       14.68716720       7.51850520      19.15218420       10
C       23.71749480      14.68716720       5.05518420       10
C       16.54883280      23.71749480      19.15218420       10
C        7.51850520      16.54883280       5.05518420       10
C        0.93083280      23.13650520      19.15218420       10
C        8.09949480       0.93083280       5.05518420       10
C       30.30516720       8.09949480      19.15218420       10
C       23.13650520      30.30516720       5.05518420       10
C       16.54883280      23.71749480       9.04181580       10
C        7.51850520      16.54883280      23.13881580       10
C       14.68716720       7.51850520       9.04181580       10
C       23.71749480      14.68716720      23.13881580       10
C       31.12042680      10.12671120       7.83511260       11
C       21.10928880      31.12042680      21.93211260       11
C        0.11557320      21.10928880       7.83511260       11
C       10.12671120       0.11557320      21.93211260       11
C       15.50242680       5.49128880      20.35888740       11
C       25.74471120      15.50242680       6.26188740       11
C       15.73357320      25.74471120      20.35888740       11
C        5.49128880      15.73357320       6.26188740       11
C        0.11557320      21.10928880      20.35888740       11
C       10.12671120       0.11557320       6.26188740       11
C       31.12042680      10.12671120      20.35888740       11
C       21.10928880      31.12042680       6.26188740       11
C       15.73357320      25.74471120       7.83511260       11
C        5.49128880      15.73357320      21.93211260       11
C       15.50242680       5.49128880       7.83511260       11
C       25.74471120      15.50242680      21.93211260       11
H       30.72372960      10.64210520       8.50331040       12
H       20.59389480      30.72372960      22.60031040       12
H        0.51227040      20.59389480       8.50331040       12
H       10.64210520       0.51227040      22.60031040       12
H       15.10572960       4.97589480      19.69068960       12
H       26.26010520      15.10572960       5.59368960       12
H       16.13027040      26.26010520      19.69068960       12
H        4.97589480      16.13027040       5.59368960       12
H        0.51227040      20.59389480      19.69068960       12
H       10.64210520       0.51227040       5.59368960       12
H       30.72372960      10.64210520      19.69068960       12
H       20.59389480      30.72372960       5.59368960       12
H       16.13027040      26.26010520       8.50331040       12
H        4.97589480      16.13027040      22.60031040       12
H       15.10572960       4.97589480       8.50331040       12
H       26.26010520      15.10572960      22.60031040       12
C       31.00797720       8.73639684       7.90559760       13
C       22.49960316      31.00797720      22.00259760       13
C        0.22802280      22.49960316       7.90559760       13
C        8.73639684       0.22802280      22.00259760       13
C       15.38997720       6.88160316      20.28840240       13
C       24.35439684      15.38997720       6.19140240       13
C       15.84602280      24.35439684      20.28840240       13
C        6.88160316      15.84602280       6.19140240       13
C        0.22802280      22.49960316      20.28840240       13
C        8.73639684       0.22802280       6.19140240       13
C       31.00797720       8.73639684      20.28840240       13
C       22.49960316      31.00797720       6.19140240       13
C       15.84602280      24.35439684       7.90559760       13
C        6.88160316      15.84602280      22.00259760       13
C       15.38997720       6.88160316       7.90559760       13
C       24.35439684      15.38997720      22.00259760       13
C        0.38107920       7.98392160       6.89625240       14
C       23.25207840       0.38107920      20.99325240       14
C       30.85492080      23.25207840       6.89625240       14
C        7.98392160      30.85492080      20.99325240       14
C       15.99907920       7.63407840      21.29774760       14
C       23.60192160      15.99907920       7.20074760       14
C       15.23692080      23.60192160      21.29774760       14
C        7.63407840      15.23692080       7.20074760       14
C       30.85492080      23.25207840      21.29774760       14
C        7.98392160      30.85492080       7.20074760       14
C        0.38107920       7.98392160      21.29774760       14
C       23.25207840       0.38107920       7.20074760       14
C       15.23692080      23.60192160       6.89625240       14
C        7.63407840      15.23692080      20.99325240       14
C       15.99907920       7.63407840       6.89625240       14
C       23.60192160      15.99907920      20.99325240       14
H        0.33422520       7.05621240       6.92162700       15
H       24.17978760       0.33422520      21.01862700       15
H       30.90177480      24.17978760       6.92162700       15
H        7.05621240      30.90177480      21.01862700       15
H       15.95222520       8.56178760      21.27237300       15
H       22.67421240      15.95222520       7.17537300       15
H       15.28377480      22.67421240      21.27237300       15
H        8.56178760      15.28377480       7.17537300       15
H       30.90177480      24.17978760      21.27237300       15
H        7.05621240      30.90177480       7.17537300       15
H        0.33422520       7.05621240      21.27237300       15
H       24.17978760       0.33422520       7.17537300       15
H       15.28377480      22.67421240       6.92162700       15
H        8.56178760      15.28377480      21.01862700       15
H       15.95222520       8.56178760       6.92162700       15
H       22.67421240      15.95222520      21.01862700       15
C        1.06827120       8.62113600       5.84743560       16
C       22.61486400       1.06827120      19.94443560       16
C       30.16772880      22.61486400       5.84743560       16
C        8.62113600      30.16772880      19.94443560       16
C       16.68627120       6.99686400      22.34656440       16
C       24.23913600      16.68627120       8.24956440       16
C       14.54972880      24.23913600      22.34656440       16
C        6.99686400      14.54972880       8.24956440       16
C       30.16772880      22.61486400      22.34656440       16
C        8.62113600      30.16772880       8.24956440       16
C        1.06827120       8.62113600      22.34656440       16
C       22.61486400       1.06827120       8.24956440       16
C       14.54972880      24.23913600       5.84743560       16
C        6.99686400      14.54972880      19.94443560       16
C       16.68627120       6.99686400       5.84743560       16
C       24.23913600      16.68627120      19.94443560       16
C        1.09326000      10.00926384       5.87281020       17
C       21.22673616       1.09326000      19.96981020       17
C       30.14274000      21.22673616       5.87281020       17
C       10.00926384      30.14274000      19.96981020       17
C       16.71126000       5.60873616      22.32118980       17
C       25.62726384      16.71126000       8.22418980       17
C       14.52474000      25.62726384      22.32118980       17
C        5.60873616      14.52474000       8.22418980       17
C       30.14274000      21.22673616      22.32118980       17
C       10.00926384      30.14274000       8.22418980       17
C        1.09326000      10.00926384      22.32118980       17
C       21.22673616       1.09326000       8.22418980       17
C       14.52474000      25.62726384       5.87281020       17
C        5.60873616      14.52474000      19.96981020       17
C       16.71126000       5.60873616       5.87281020       17
C       25.62726384      16.71126000      19.96981020       17
H        1.52119320      10.45468920       5.17923780       18
H       20.78131080       1.52119320      19.27623780       18
H       29.71480680      20.78131080       5.17923780       18
H       10.45468920      29.71480680      19.27623780       18
H       17.13919320       5.16331080      23.01476220       18
H       26.07268920      17.13919320       8.91776220       18
H       14.09680680      26.07268920      23.01476220       18
H        5.16331080      14.09680680       8.91776220       18
H       29.71480680      20.78131080      23.01476220       18
H       10.45468920      29.71480680       8.91776220       18
H        1.52119320      10.45468920      23.01476220       18
H       20.78131080       1.52119320       8.91776220       18
H       14.09680680      26.07268920       5.17923780       18
H        5.16331080      14.09680680      19.27623780       18
H       17.13919320       5.16331080       5.17923780       18
H       26.07268920      17.13919320      19.27623780       18
C        1.77108120       7.86241356       4.79861880       19
C       23.37358644       1.77108120      18.89561880       19
C       29.46491880      23.37358644       4.79861880       19
C        7.86241356      29.46491880      18.89561880       19
C       17.38908120       7.75558644      23.39538120       19
C       23.48041356      17.38908120       9.29838120       19
C       13.84691880      23.48041356      23.39538120       19
C        7.75558644      13.84691880       9.29838120       19
C       29.46491880      23.37358644      23.39538120       19
C        7.86241356      29.46491880       9.29838120       19
C        1.77108120       7.86241356      23.39538120       19
C       23.37358644       1.77108120       9.29838120       19
C       13.84691880      23.48041356       4.79861880       19
C        7.75558644      13.84691880      18.89561880       19
C       17.38908120       7.75558644       4.79861880       19
C       23.48041356      17.38908120      18.89561880       19
C        1.27130520       6.67825680       4.37852820       20
C       24.55774320       1.27130520      18.47552820       20
C       29.96469480      24.55774320       4.37852820       20
C        6.67825680      29.96469480      18.47552820       20
C       16.88930520       8.93974320      23.81547180       20
C       22.29625680      16.88930520       9.71847180       20
C       14.34669480      22.29625680      23.81547180       20
C        8.93974320      14.34669480       9.71847180       20
C       29.96469480      24.55774320      23.81547180       20
C        6.67825680      29.96469480       9.71847180       20
C        1.27130520       6.67825680      23.81547180       20
C       24.55774320       1.27130520       9.71847180       20
C       14.34669480      22.29625680       4.37852820       20
C        8.93974320      14.34669480      18.47552820       20
C       16.88930520       8.93974320       4.37852820       20
C       22.29625680      16.88930520      18.47552820       20
H        0.49665240       6.34715520       4.77042480       21
H       24.88884480       0.49665240      18.86742480       21
H       30.73934760      24.88884480       4.77042480       21
H        6.34715520      30.73934760      18.86742480       21
H       16.11465240       9.27084480      23.42357520       21
H       21.96515520      16.11465240       9.32657520       21
H       15.12134760      21.96515520      23.42357520       21
H        9.27084480      15.12134760       9.32657520       21
H       30.73934760      24.88884480      23.42357520       21
H        6.34715520      30.73934760       9.32657520       21
H        0.49665240       6.34715520      23.42357520       21
H       24.88884480       0.49665240       9.32657520       21
H       15.12134760      21.96515520       4.77042480       21
H        9.27084480      15.12134760      18.86742480       21
H       16.11465240       9.27084480       4.77042480       21
H       21.96515520      16.11465240      18.86742480       21
C        1.90539600       5.92859280       3.35226660       22
C       25.30740720       1.90539600      17.44926660       22
C       29.33060400      25.30740720       3.35226660       22
C        5.92859280      29.33060400      17.44926660       22
C       17.52339600       9.68940720      24.84173340       22
C       21.54659280      17.52339600      10.74473340       22
C       13.71260400      21.54659280      24.84173340       22
C        9.68940720      13.71260400      10.74473340       22
C       29.33060400      25.30740720      24.84173340       22
C        5.92859280      29.33060400      10.74473340       22
C        1.90539600       5.92859280      24.84173340       22
C       25.30740720       1.90539600      10.74473340       22
C       13.71260400      21.54659280       3.35226660       22
C        9.68940720      13.71260400      17.44926660       22
C       17.52339600       9.68940720       3.35226660       22
C       21.54659280      17.52339600      17.44926660       22
H        1.53681120       5.12895120       3.05622960       23
H       26.10704880       1.53681120      17.15322960       23
H       29.69918880      26.10704880       3.05622960       23
H        5.12895120      29.69918880      17.15322960       23
H       17.15481120      10.48904880      25.13777040       23
H       20.74695120      17.15481120      11.04077040       23
H       14.08118880      20.74695120      25.13777040       23
H       10.48904880      14.08118880      11.04077040       23
H       29.69918880      26.10704880      25.13777040       23
H        5.12895120      29.69918880      11.04077040       23
H        1.53681120       5.12895120      25.13777040       23
H       26.10704880       1.53681120      11.04077040       23
H       14.08118880      20.74695120       3.05622960       23
H       10.48904880      14.08118880      17.15322960       23
H       17.15481120      10.48904880       3.05622960       23
H       20.74695120      17.15481120      17.15322960       23
C        3.09236400       6.40962720       2.79966420       24
C       24.82637280       3.09236400      16.89666420       24
C       28.14363600      24.82637280       2.79966420       24
C        6.40962720      28.14363600      16.89666420       24
C       18.71036400       9.20837280      25.39433580       24
C       22.02762720      18.71036400      11.29733580       24
C       12.52563600      22.02762720      25.39433580       24
C        9.20837280      12.52563600      11.29733580       24
C       28.14363600      24.82637280      25.39433580       24
C        6.40962720      28.14363600      11.29733580       24
C        3.09236400       6.40962720      25.39433580       24
C       24.82637280       3.09236400      11.29733580       24
C       12.52563600      22.02762720       2.79966420       24
C        9.20837280      12.52563600      16.89666420       24
C       18.71036400       9.20837280       2.79966420       24
C       22.02762720      18.71036400      16.89666420       24
C        3.56090400       7.59659520       3.24231000       25
C       23.63940480       3.56090400      17.33931000       25
C       27.67509600      23.63940480       3.24231000       25
C        7.59659520      27.67509600      17.33931000       25
C       19.17890400       8.02140480      24.95169000       25
C       23.21459520      19.17890400      10.85469000       25
C       12.05709600      23.21459520      24.95169000       25
C        8.02140480      12.05709600      10.85469000       25
C       27.67509600      23.63940480      24.95169000       25
C        7.59659520      27.67509600      10.85469000       25
C        3.56090400       7.59659520      24.95169000       25
C       23.63940480       3.56090400      10.85469000       25
C       12.05709600      23.21459520       3.24231000       25
C        8.02140480      12.05709600      17.33931000       25
C       19.17890400       8.02140480       3.24231000       25
C       23.21459520      19.17890400      17.33931000       25
H        4.33868040       7.94643840       2.86732980       26
H       23.28956160       4.33868040      16.96432980       26
H       26.89731960      23.28956160       2.86732980       26
H        7.94643840      26.89731960      16.96432980       26
H       19.95668040       7.67156160      25.32667020       26
H       23.56443840      19.95668040      11.22967020       26
H       11.27931960      23.56443840      25.32667020       26
H        7.67156160      11.27931960      11.22967020       26
H       26.89731960      23.28956160      25.32667020       26
H        7.94643840      26.89731960      11.22967020       26
H        4.33868040       7.94643840      25.32667020       26
H       23.28956160       4.33868040      11.22967020       26
H       11.27931960      23.56443840       2.86732980       26
H        7.67156160      11.27931960      16.96432980       26
H       19.95668040       7.67156160       2.86732980       26
H       23.56443840      19.95668040      16.96432980       26
C        2.91431880       8.30565240       4.24319700       27
C       22.93034760       2.91431880      18.34019700       27
C       28.32168120      22.93034760       4.24319700       27
C        8.30565240      28.32168120      18.34019700       27
C       18.53231880       7.31234760      23.95080300       27
C       23.92365240      18.53231880       9.85380300       27
C       12.70368120      23.92365240      23.95080300       27
C        7.31234760      12.70368120       9.85380300       27
C       28.32168120      22.93034760      23.95080300       27
C        8.30565240      28.32168120       9.85380300       27
C        2.91431880       8.30565240      23.95080300       27
C       22.93034760       2.91431880       9.85380300       27
C       12.70368120      23.92365240       4.24319700       27
C        7.31234760      12.70368120      18.34019700       27
C       18.53231880       7.31234760       4.24319700       27
C       23.92365240      18.53231880      18.34019700       27
H        3.27978000       9.10529400       4.54205340       28
H       22.13070600       3.27978000      18.63905340       28
H       27.95622000      22.13070600       4.54205340       28
H        9.10529400      27.95622000      18.63905340       28
H       18.89778000       6.51270600      23.65194660       28
H       24.72329400      18.89778000       9.55494660       28
H       12.33822000      24.72329400      23.65194660       28
H        6.51270600      12.33822000       9.55494660       28
H       27.95622000      22.13070600      23.65194660       28
H        9.10529400      27.95622000       9.55494660       28
H        3.27978000       9.10529400      23.65194660       28
H       22.13070600       3.27978000       9.55494660       28
H       12.33822000      24.72329400       4.54205340       28
H        6.51270600      12.33822000      18.63905340       28
H       18.89778000       6.51270600       4.54205340       28
H       24.72329400      18.89778000      18.63905340       28
C        3.80454480       5.62872720       1.78186080       29
C       25.60727280       3.80454480      15.87886080       29
C       27.43145520      25.60727280       1.78186080       29
C        5.62872720      27.43145520      15.87886080       29
C       19.42254480       9.98927280      26.41213920       29
C       21.24672720      19.42254480      12.31513920       29
C       11.81345520      21.24672720      26.41213920       29
C        9.98927280      11.81345520      12.31513920       29
C       27.43145520      25.60727280      26.41213920       29
C        5.62872720      27.43145520      12.31513920       29
C        3.80454480       5.62872720      26.41213920       29
C       25.60727280       3.80454480      12.31513920       29
C       11.81345520      21.24672720       1.78186080       29
C        9.98927280      11.81345520      15.87886080       29
C       19.42254480       9.98927280       1.78186080       29
C       21.24672720      19.42254480      15.87886080       29
O        4.90249020       6.09414360       1.37699496       30
O       25.14185640       4.90249020      15.47399496       30
O       26.33350980      25.14185640       1.37699496       30
O        6.09414360      26.33350980      15.47399496       30
O       20.52049020       9.52385640      26.81700504       30
O       21.71214360      20.52049020      12.72000504       30
O       10.71550980      21.71214360      26.81700504       30
O        9.52385640      10.71550980      12.72000504       30
O       26.33350980      25.14185640      26.81700504       30
O        6.09414360      26.33350980      12.72000504       30
O        4.90249020       6.09414360      26.81700504       30
O       25.14185640       4.90249020      12.72000504       30
O       10.71550980      21.71214360       1.37699496       30
O        9.52385640      10.71550980      15.47399496       30
O       20.52049020       9.52385640       1.37699496       30
O       21.71214360      20.52049020      15.47399496       30
O        3.27290808       4.56076836       1.38404346       31
O       26.67523164       3.27290808      15.48104346       31
O       27.96309192      26.67523164       1.38404346       31
O        4.56076836      27.96309192      15.48104346       31
O       18.89090808      11.05723164      26.80995654       31
O       20.17876836      18.89090808      12.71295654       31
O       12.34509192      20.17876836      26.80995654       31
O       11.05723164      12.34509192      12.71295654       31
O       27.96309192      26.67523164      26.80995654       31
O        4.56076836      27.96309192      12.71295654       31
O        3.27290808       4.56076836      26.80995654       31
O       26.67523164       3.27290808      12.71295654       31
O       12.34509192      20.17876836       1.38404346       31
O       11.05723164      12.34509192      15.48104346       31
O       18.89090808      11.05723164       1.38404346       31
O       20.17876836      18.89090808      15.48104346       31
Cu      26.02021272       6.01199292      14.09700000       32
Cu      25.22400708      26.02021272       0.00000000       32
Cu       5.21578728      25.22400708      14.09700000       32
Cu       6.01199292       5.21578728       0.00000000       32
Cu      10.40221272       9.60600708      14.09700000       32
Cu      21.62999292      10.40221272       0.00000000       32
Cu      20.83378728      21.62999292      14.09700000       32
Cu       9.60600708      20.83378728       0.00000000       32
Cu      27.80816136       4.07942160      14.09700000       33
Cu      27.15657840      27.80816136       0.00000000       33
Cu       3.42783864      27.15657840      14.09700000       33
Cu       4.07942160       3.42783864       0.00000000       33
Cu      12.19016136      11.53857840      14.09700000       33
Cu      19.69742160      12.19016136       0.00000000       33
Cu      19.04583864      19.69742160      14.09700000       33
Cu      11.53857840      19.04583864       0.00000000       33
Cu       0.67407288      12.76271724       6.92472834       34
Cu      18.47328276       0.67407288      21.02172834       34
Cu      30.56192712      18.47328276       6.92472834       34
Cu      12.76271724      30.56192712      21.02172834       34
Cu      16.29207288       2.85528276      21.26927166       34
Cu      28.38071724      16.29207288       7.17227166       34
Cu      14.94392712      28.38071724      21.26927166       34
Cu       2.85528276      14.94392712       7.17227166       34
Cu      30.56192712      18.47328276      21.26927166       34
Cu      12.76271724      30.56192712       7.17227166       34
Cu       0.67407288      12.76271724      21.26927166       34
Cu      18.47328276       0.67407288       7.17227166       34
Cu      14.94392712      28.38071724       6.92472834       34
Cu       2.85528276      14.94392712      21.02172834       34
Cu      16.29207288       2.85528276       6.92472834       34
Cu      28.38071724      16.29207288      21.02172834       34
Cu      31.23600000      15.61800000       8.44805016       35
Cu      15.61800000      31.23600000      22.54505016       35
Cu      15.61800000       0.00000000      19.74594984       35
Cu       0.00000000      15.61800000       5.64894984       35
Cu       0.00000000      15.61800000      19.74594984       35
Cu      15.61800000       0.00000000       5.64894984       35
Cu      15.61800000       0.00000000       8.44805016       35
Cu       0.00000000      15.61800000      22.54505016       35
N        0.53194908      10.74768288       6.84719484       36
N       20.48831712       0.53194908      20.94419484       36
N       30.70405092      20.48831712       6.84719484       36
N       10.74768288      30.70405092      20.94419484       36
N       16.14994908       4.87031712      21.34680516       36
N       26.36568288      16.14994908       7.24980516       36
N       15.08605092      26.36568288      21.34680516       36
N        4.87031712      15.08605092       7.24980516       36
N       30.70405092      20.48831712      21.34680516       36
N       10.74768288      30.70405092       7.24980516       36
N        0.53194908      10.74768288      21.34680516       36
N       20.48831712       0.53194908       7.24980516       36
N       15.08605092      26.36568288       6.84719484       36
N        4.87031712      15.08605092      20.94419484       36
N       16.14994908       4.87031712       6.84719484       36
N       26.36568288      16.14994908      20.94419484       36
O       27.14970648       6.80819856      12.70844550       37
O       24.42780144      27.14970648      26.80544550       37
O        4.08629352      24.42780144      12.70844550       37
O        6.80819856       4.08629352      26.80544550       37
O       11.53170648       8.80980144      15.48555450       37
O       22.42619856      11.53170648       1.38855450       37
O       19.70429352      22.42619856      15.48555450       37
O        8.80980144      19.70429352       1.38855450       37
O        4.08629352      24.42780144      15.48555450       37
O        6.80819856       4.08629352       1.38855450       37
O       27.14970648       6.80819856      15.48555450       37
O       24.42780144      27.14970648       1.38855450       37
O       19.70429352      22.42619856      12.70844550       37
O        8.80980144      19.70429352      26.80544550       37
O       11.53170648       8.80980144      12.70844550       37
O       22.42619856      11.53170648      26.80544550       37
O       28.65371988       5.16612204      12.69491238       38
O       26.06987796      28.65371988      26.79191238       38
O        2.58228012      26.06987796      12.69491238       38
O        5.16612204       2.58228012      26.79191238       38
O       13.03571988      10.45187796      15.49908762       38
O       20.78412204      13.03571988       1.40208762       38
O       18.20028012      20.78412204      15.49908762       38
O       10.45187796      18.20028012       1.40208762       38
O        2.58228012      26.06987796      15.49908762       38
O        5.16612204       2.58228012       1.40208762       38
O       28.65371988       5.16612204      15.49908762       38
O       26.06987796      28.65371988       1.40208762       38
O       18.20028012      20.78412204      12.69491238       38
O       10.45187796      18.20028012      26.79191238       38
O       13.03571988      10.45187796      12.69491238       38
O       20.78412204      13.03571988      26.79191238       38
O       24.45466440       7.48414560      14.09700000       39
O       23.75185440      24.45466440       0.00000000       39
O        6.78133560      23.75185440      14.09700000       39
O        7.48414560       6.78133560       0.00000000       39
O        8.83666440       8.13385440      14.09700000       39
O       23.10214560       8.83666440       0.00000000       39
O       22.39933560      23.10214560      14.09700000       39
O        8.13385440      22.39933560       0.00000000       39
O       29.25563760       2.50512720      14.09700000       40
O       28.73087280      29.25563760       0.00000000       40
O        1.98036240      28.73087280      14.09700000       40
O        2.50512720       1.98036240       0.00000000       40
O       13.63763760      13.11287280      14.09700000       40
O       18.12312720      13.63763760       0.00000000       40
O       17.59836240      18.12312720      14.09700000       40
O       13.11287280      17.59836240       0.00000000       40
O        0.93426876      14.68373124       7.04850000       41
O       16.55226876       0.93426876      21.14550000       41
O       30.30173124      16.55226876       7.04850000       41
O       14.68373124      30.30173124      21.14550000       41
O       30.30173124      16.55226876      21.14550000       41
O       14.68373124      30.30173124       7.04850000       41
O        0.93426876      14.68373124      21.14550000       41
O       16.55226876       0.93426876       7.04850000       41
O        1.07389368      12.49939776       8.86250196       42
O       18.73660224       1.07389368      22.95950196       42
O       30.16210632      18.73660224       8.86250196       42
O       12.49939776      30.16210632      22.95950196       42
O       16.69189368       3.11860224      19.33149804       42
O       28.11739776      16.69189368       5.23449804       42
O       14.54410632      28.11739776      19.33149804       42
O        3.11860224      14.54410632       5.23449804       42
O       30.16210632      18.73660224      19.33149804       42
O       12.49939776      30.16210632       5.23449804       42
O        1.07389368      12.49939776      19.33149804       42
O       18.73660224       1.07389368       5.23449804       42
O       14.54410632      28.11739776       8.86250196       42
O        3.11860224      14.54410632      22.95950196       42
O       16.69189368       3.11860224       8.86250196       42
O       28.11739776      16.69189368      22.95950196       42
O        0.80776296      14.62250868       9.92203248       43
O       16.61349132       0.80776296      24.01903248       43
O       30.42823704      16.61349132       9.92203248       43
O       14.62250868      30.42823704      24.01903248       43
O       16.42576296       0.99549132      18.27196752       43
O       30.24050868      16.42576296       4.17496752       43
O       14.81023704      30.24050868      18.27196752       43
O        0.99549132      14.81023704       4.17496752       43
O       30.42823704      16.61349132      18.27196752       43
O       14.62250868      30.42823704       4.17496752       43
O        0.80776296      14.62250868      18.27196752       43
O       16.61349132       0.80776296       4.17496752       43
O       14.81023704      30.24050868       9.92203248       43
O        0.99549132      14.81023704      24.01903248       43
O       16.42576296       0.99549132       9.92203248       43
O       30.24050868      16.42576296      24.01903248       43
O        2.92056600      13.98123360       9.00262614       44
O       17.25476640       2.92056600      23.09962614       44
O       28.31543400      17.25476640       9.00262614       44
O       13.98123360      28.31543400      23.09962614       44
O       18.53856600       1.63676640      19.19137386       44
O       29.59923360      18.53856600       5.09437386       44
O       12.69743400      29.59923360      19.19137386       44
O        1.63676640      12.69743400       5.09437386       44
O       28.31543400      17.25476640      19.19137386       44
O       13.98123360      28.31543400       5.09437386       44
O        2.92056600      13.98123360      19.19137386       44
O       17.25476640       2.92056600       5.09437386       44
O       12.69743400      29.59923360       9.00262614       44
O        1.63676640      12.69743400      23.09962614       44
O       18.53856600       1.63676640       9.00262614       44
O       29.59923360      18.53856600      23.09962614       44
O        2.10624348      12.92733096      10.96351884       45
O       18.30866904       2.10624348      25.06051884       45
O       29.12975652      18.30866904      10.96351884       45
O       12.92733096      29.12975652      25.06051884       45
O       17.72424348       2.69066904      17.23048116       45
O       28.54533096      17.72424348       3.13348116       45
O       13.51175652      28.54533096      17.23048116       45
O        2.69066904      13.51175652       3.13348116       45
O       29.12975652      18.30866904      17.23048116       45
O       12.92733096      29.12975652       3.13348116       45
O        2.10624348      12.92733096      17.23048116       45
O       18.30866904       2.10624348       3.13348116       45
O       13.51175652      28.54533096      10.96351884       45
O        2.69066904      13.51175652      25.06051884       45
O       17.72424348       2.69066904      10.96351884       45
O       28.54533096      17.72424348      25.06051884       45
O       29.95344984      13.08788400       6.22523520       46
O       18.14811600      29.95344984      20.32223520       46
O        1.28255016      18.14811600       6.22523520       46
O       13.08788400       1.28255016      20.32223520       46
O       14.33544984       2.53011600      21.96876480       46
O       28.70588400      14.33544984       7.87176480       46
O       16.90055016      28.70588400      21.96876480       46
O        2.53011600      16.90055016       7.87176480       46
O        1.28255016      18.14811600      21.96876480       46
O       13.08788400       1.28255016       7.87176480       46
O       29.95344984      13.08788400      21.96876480       46
O       18.14811600      29.95344984       7.87176480       46
O       16.90055016      28.70588400       6.22523520       46
O        2.53011600      16.90055016      20.32223520       46
O       14.33544984       2.53011600       6.22523520       46
O       28.70588400      14.33544984      20.32223520       46
O       28.69338960      11.94870708       7.94506920       47
O       19.28729292      28.69338960      22.04206920       47
O        2.54261040      19.28729292       7.94506920       47
O       11.94870708       2.54261040      22.04206920       47
O       13.07538960       3.66929292      20.24893080       47
O       27.56670708      13.07538960       6.15193080       47
O       18.16061040      27.56670708      20.24893080       47
O        3.66929292      18.16061040       6.15193080       47
O        2.54261040      19.28729292      20.24893080       47
O       11.94870708       2.54261040       6.15193080       47
O       28.69338960      11.94870708      20.24893080       47
O       19.28729292      28.69338960       6.15193080       47
O       18.16061040      27.56670708       7.94506920       47
O        3.66929292      18.16061040      22.04206920       47
O       13.07538960       3.66929292       7.94506920       47
O       27.56670708      13.07538960      22.04206920       47
S        1.74921600      13.49738796       9.70324704       48
S       17.73861204       1.74921600      23.80024704       48
S       29.48678400      17.73861204       9.70324704       48
S       13.49738796      29.48678400      23.80024704       48
S       17.36721600       2.12061204      18.49075296       48
S       29.11538796      17.36721600       4.39375296       48
S       13.86878400      29.11538796      18.49075296       48
S        2.12061204      13.86878400       4.39375296       48
S       29.48678400      17.73861204      18.49075296       48
S       13.49738796      29.48678400       4.39375296       48
S        1.74921600      13.49738796      18.49075296       48
S       17.73861204       1.74921600       4.39375296       48
S       13.86878400      29.11538796       9.70324704       48
S        2.12061204      13.86878400      23.80024704       48
S       17.36721600       2.12061204       9.70324704       48
S       29.11538796      17.36721600      23.80024704       48
S       28.71994020      13.10194020       7.04850000       49
S       18.13405980      28.71994020      21.14550000       49
S        2.51605980      18.13405980       7.04850000       49
S       13.10194020       2.51605980      21.14550000       49
S        2.51605980      18.13405980      21.14550000       49
S       13.10194020       2.51605980       7.04850000       49
S       28.71994020      13.10194020      21.14550000       49
S       18.13405980      28.71994020       7.04850000       49
