84

Zn 10.251400 14.515100 1.394500
C 8.511900 16.770600 0.628000
C 7.627100 17.924100 1.021700
C 7.139700 18.016800 2.314100
H 7.334300 17.346300 2.929600
C 6.365100 19.098300 2.696300
H 6.030700 19.142400 3.562800
C 6.084300 20.113600 1.802800
C 7.324800 18.924700 0.117700
H 7.626700 18.863600 -0.760300
C 6.573900 20.021900 0.514500
H 6.397800 20.704600 -0.093700
C 5.342200 21.331900 2.222500
C 10.251400 12.668700 3.498300
C 10.251400 13.010500 5.894700
C 10.251400 10.701600 5.209400
N 5.897300 22.488700 1.825700
N 10.251400 12.158900 4.738600
O 8.845600 15.970900 1.524300
O 8.859000 16.710600 -0.579900
O 10.251400 13.827900 3.246200
C 0.999500 16.770600 4.579300
C 1.884300 17.924100 4.185600
C 2.371700 18.016800 2.893200
H 2.177100 17.346300 2.277700
C 3.146300 19.098300 2.511000
H 3.480700 19.142400 1.644500
C 3.427100 20.113600 3.404500
C 2.186600 18.924700 5.089600
H 1.884700 18.863600 5.967600
C 2.937500 20.021900 4.692800
H 3.113600 20.704600 5.301000
C 4.169200 21.331900 2.984800
N 3.614100 22.488700 3.381600
O 0.665800 15.970900 3.683000
O 0.652400 16.710600 5.787200
C 8.511900 28.206900 0.628000
C 7.627100 27.053400 1.021700
C 7.139700 26.960700 2.314100
H 7.334300 27.631200 2.929600
C 6.365100 25.879200 2.696300
H 6.030700 25.835100 3.562800
C 6.084300 24.863900 1.802800
C 7.324800 26.052800 0.117700
H 7.626700 26.113900 -0.760300
C 6.573900 24.955600 0.514500
H 6.397800 24.272900 -0.093700
C 5.342200 23.645600 2.222500
O 8.845600 29.006600 1.524300
O 8.859000 28.266900 -0.579900
C 0.999500 28.206900 4.579300
C 1.884300 27.053400 4.185600
C 2.371700 26.960700 2.893200
H 2.177100 27.631200 2.277700
C 3.146300 25.879200 2.511000
H 3.480700 25.835100 1.644500
C 3.427100 24.863900 3.404500
C 2.186600 26.052800 5.089600
H 1.884700 26.113900 5.967600
C 2.937500 24.955600 4.692800
H 3.113600 24.272900 5.301000
C 4.169200 23.645600 2.984800
O 0.665800 29.006600 3.683000
O 0.652400 28.266900 5.787200
Zn 10.251400 30.462400 1.394500
C 10.251400 32.308800 3.498300
C 10.251400 31.967000 5.894700
C 10.251400 34.275900 5.209400
N 10.251400 32.818600 4.738600
O 10.251400 31.149600 3.246200
Zn 10.251400 29.507600 -1.394500
Zn 10.251400 15.469900 -1.394500
Zn -0.740000 29.507600 6.601800
Zn -0.740000 15.469900 6.601800
Zn -0.740000 14.515100 3.812800
Zn -0.740000 30.462400 3.812800
O 11.657200 29.006600 1.524300
O 11.657200 15.970900 1.524300
O 11.643800 31.703100 0.579900
O 8.859000 13.274400 0.579900
O 11.643800 13.274400 0.579900
O 8.859000 31.703100 0.579900
C 10.981200 12.218900 5.042700
C 11.379100 10.746600 5.008400
