62

C -5.970600 3.860800 0.205700
O -6.476800 4.278700 1.230800
O -6.527100 4.079900 -0.998300
C -4.732300 3.049700 0.120700
C -4.062300 2.848600 -1.091400
C -2.890800 2.085000 -1.119900
C -2.382000 1.495200 0.050900
C -3.058600 1.714000 1.260700
C -4.223500 2.488800 1.297300
C -1.155800 0.694000 0.010700
C -1.114900 -0.666600 -0.319300
N 0.058800 -1.354300 -0.338400
C 1.201300 -0.669000 -0.046400
C 1.158300 0.705100 0.259200
N -0.024300 1.383400 0.315900
C 2.334300 1.549700 0.527300
C 2.421000 2.290000 1.721500
C 3.547700 3.065600 2.018100
C 4.612600 3.105700 1.114100
C 4.520400 2.428600 -0.104700
C 3.390600 1.658700 -0.394300
C 5.855800 3.859000 1.397800
O 6.462600 4.485800 0.547400
O 6.313900 3.670300 2.652800
C 2.417200 -1.515000 -0.071700
C 2.600400 -2.451900 -1.104800
C 3.721300 -3.286500 -1.144700
C 4.686400 -3.202500 -0.141200
C 4.514700 -2.307200 0.919200
C 3.387100 -1.472900 0.948800
C 5.830500 -4.141800 -0.184300
O 5.728300 -5.297800 -0.555500
O 6.997500 -3.583200 0.198600
C -2.290700 -1.478100 -0.656500
C -2.922200 -1.356300 -1.904900
C -4.019400 -2.155500 -2.235400
C -4.504100 -3.088400 -1.314100
C -5.641900 -3.945400 -1.716500
O -5.745000 -4.425400 -2.832200
O -6.561500 -4.101100 -0.740900
C -3.880100 -3.239400 -0.070300
C -2.778800 -2.437800 0.250200
H -7.327500 4.616100 -0.812200
H -4.433000 3.295800 -2.012700
H -2.366200 1.960500 -2.066500
H -2.686500 1.294600 2.189900
H -4.734200 2.655400 2.243400
H 1.594000 2.264900 2.433400
H 3.566600 3.639000 2.940100
H 5.331100 2.493200 -0.828200
H 3.344600 1.140500 -1.350800
H 5.745000 3.130900 3.236000
H 1.849600 -2.552700 -1.888800
H 3.822400 -4.020400 -1.941600
H 5.216900 -2.277400 1.750100
H 3.255700 -0.816900 1.810400
H 6.978600 -2.615300 0.325700
H -2.551900 -0.654600 -2.648100
H -4.489400 -2.061800 -3.212000
H -6.433300 -3.526400 0.038700
H -4.209000 -4.005700 0.629300
H -2.271600 -2.580200 1.202000
