183
Lattice="15.5168 0.0 0.0 -5.797880830665519 15.74545708683623 0.0 -7.4804157860115 -4.196847226703436 16.661181392209304" Properties=species:S:1:pos:R:3:spacegroup_kinds:I:1 spacegroup="P -1" unit_cell=conventional pbc="T T T"
Zn       2.13313921       5.25508095       4.80175248        0
Zn       0.10536417       6.29352891      11.85942891        0
Zn      -5.60596837      11.85092563       7.76810921        1
Zn       7.84447176      -0.30231577       8.89307218        1
Zn      -6.61749249      11.57197641       4.59182159        2
Zn       8.85599588      -0.02336655      12.06935980        2
S        1.01253097       0.72006232       5.32874564        3
S        1.22597241      10.82854754      11.33243575        3
S        5.57142301       8.40348028       5.97903155        4
S       -3.33291962       3.14512958      10.68214984        4
S       -2.09592621       8.66097609       6.38323181        5
S        4.33442959       2.88763377      10.27794958        5
S       -0.02466104       7.19483608      16.59303716        6
S        2.26316442       4.35377378       0.06814423        6
O       -6.34573159      12.93265991       6.05967167        7
O        8.58423497      -1.38405005      10.60150972        7
O       -5.41769555      13.77031695       4.24693514        8
O        7.65619893      -2.22170709      12.41424626        8
O        0.64977400       3.98173027       7.37090665        9
O        1.58872938       7.56687959       9.29027474        9
O        1.83849680       3.49435209       5.53651058       10
O        0.40000659       8.05425777      11.12467082       10
O        3.07445314       5.89241269       7.57417306       11
O       -0.83594976       5.65619717       9.08700833       11
O        3.45270146       6.52964780       5.46320138       12
O       -1.21419808       5.01896206      11.19798001       12
O        7.66288300      10.34131911       5.55817011       13
O       -5.42437962       1.20729075      11.10301128       13
O       -7.11495527      10.46594992       7.63248720       14
O        9.35345865       1.08265994       9.02869420       14
O        8.36512082      11.46090883       2.70744198       15
O       -6.12661743       0.08770103      13.95373942       15
O        6.85365681      12.78141488       3.49718197       16
O       -4.61515343      -1.23280502      13.16399942       16
O       -0.15351351       6.60955025      13.74714077       17
O        2.39201690       4.93905961       2.91404063       17
O       -2.10924056       7.54425702      13.33061123       18
O        4.34774394       4.00435284       3.33057016       18
O        0.28577638       6.96501064       6.82275378       19
O        1.95272701       4.58359922       9.83842761       19
O        0.40209494       6.19030376       4.76009952       20
O        1.83640845       5.35830610      11.90108187       20
O       -4.28244411      10.67724225       6.63115019       21
O        6.52094749       0.87136761      10.03003120       21
O       -4.96358618      10.52037953       4.50351733       22
O        7.20208956       1.02823033      12.15766406       22
O       -4.16077941      13.29839877       8.07067627       23
O        6.39928279      -1.74978891       8.59050513       23
O       -4.83273163      10.81707489       9.44522373       24
O        7.07123502       0.73153497       7.21595766       24
O       -6.87118104      12.92985734       9.03369255       25
O        9.10968442      -1.38124748       7.62748884       25
N       -3.63629508       9.06069568      10.12333381       26
N        5.87479846       2.48791418       6.53784758       26
N        2.81726283      -1.11913644       9.44355761       27
N       -0.57875944      12.66774630       7.21762378       27
N       -8.69099853      12.81612633      10.41657061       28
N       10.92950192      -1.26751647       6.24461079       28
C       -2.77557812       9.81112073      10.99471360       29
C        5.01408150       1.73748913       5.66646779       29
H       -3.05861569      10.72803312      11.01137478       30
H        5.29711907       0.82057674       5.64980661       30
H       -1.87241425       9.76143259      10.67315280       31
H        4.11091763       1.78717727       5.98802859       31
H       -2.82032939       9.44613934      11.88108845       32
H        5.05883278       2.10247052       4.78009294       32
C        3.39274719      -0.90232287      10.78311660       33
C       -1.15424381      12.45093273       5.87806480       33
H        3.05112462      -1.56209183      11.38958360       34
H       -0.81262124      13.11070169       5.27159779       34
H        3.15695925      -0.02505467      11.09468069       35
H       -0.91845587      11.57366453       5.56650070       35
H        4.34940650      -0.97675203      10.73479917       36
H       -2.11090312      12.52536189       5.92638222       36
C       -3.32241719       7.69093346      10.01670225       37
C        5.56092057       3.85767640       6.64447914       37
H       -3.93174936       7.27024857       9.40523690       38
H        6.17025274       4.27836129       7.25594450       38
H       -3.39847049       7.27671856      10.87975145       39
H        5.63697388       4.27189130       5.78142994       39
H       -2.42322725       7.59127954       9.69347533       40
H        4.66173063       3.95733032       6.96770606       40
C       -2.80824052       8.79461919       4.00368189       41
C        5.04674390       2.75399067      12.65749950       41
H       -3.25366683       9.01632857       3.21727413       42
H        5.49217022       2.53228129      13.44390727       42
C       -9.48746155      11.97909964      11.33293558       43
C       11.72596493      -0.43048978       5.32824581       43
H       -9.06919591      11.12066838      11.42790432       44
H       11.30769930       0.42794148       5.23327708       44
H        5.14642262      11.86737032      10.97638630       45
H       -2.90791924      -0.31876046       5.68479509       45
H       -9.53978994      12.40537665      12.19098642       46
H       11.77829332      -0.85676679       4.47019497       46
C       -1.72662758       7.88548407       4.06866050       47
C        3.96513096       3.66312579      12.59252090       47
H       -1.38607940       7.44284518       3.32557181       48
H        3.62458278       4.10576468      13.33560959       48
C        5.54152989      12.67897495       0.88470873       49
C       -3.30302651      -1.13036509      15.77647266       49
H        4.96616567      13.11498270       1.47284844       50
H       -2.72766229      -1.56637284      15.18833296       50
C        3.23919749      -0.20580802       8.43055778       51
C       -1.00069410      11.75441788       8.23062361       51
H        2.80317561      -0.42277174       7.60416319       52
H       -0.56467223      11.97138160       9.05701820       52
H        4.19052079      -0.27373644       8.31892787       53
H       -1.95201740      11.82234630       8.34225352       53
H        3.00934267       0.68919404       8.69047221       54
H       -0.77083929      10.85941582       7.97070918       54
C       -3.36566155      -1.58008131      10.14832559       55
C        5.60416493      13.12869117       6.51285581       55
H       -2.76584504      -1.14463302       9.53852635       56
H        5.00434842      12.69324288       7.12265505       56
H       -3.40339313      -1.08473849      10.96972183       57
H        5.64189651      12.63334835       5.69145956       57
H       -4.24417078      -1.61928024       9.76012006       58
H        6.48267416      13.16789010       6.90106133       58
C        6.73033952      12.13558906       1.24792249       59
C       -4.49183614      -0.58697920      15.41325891       59
C       -1.28343138       7.60308405      15.50989376       60
C        3.52193477       3.94552581       1.15128763       60
C       -2.19345588       8.30813946      16.18633772       61
C        4.43195926       3.24047040       0.47484367       61
H       -2.94981313       8.66016013      15.77647266       62
H        5.18831651       2.88844973       0.88470873       62
C        7.34481526      12.14645264       2.59247982       63
C       -5.10631187      -0.59784278      14.06870157       63
C        5.16343540       7.77188247       8.36391306       64
C       -2.92493202       3.77672739       8.29726833       64
H        4.81254202       7.38589355       9.13365964       65
H       -2.57403864       4.16271631       7.52752175       65
C       -3.11055469       9.29294348       5.18829189       66
C        5.34905807       2.25566638      11.47288951       66
C       -1.24977319       7.72775250       5.29492345       67
C        3.48827658       3.82085736      11.36625795       67
C       -1.17923563       7.21893730      14.07203380       68
C        3.41773901       4.32967256       2.58914759       68
C       -5.81871532      13.88844054       5.42821290       69
C        8.05721870      -2.33983068      11.23296849       69
C       -4.54488425       9.64613385       9.41190137       70
C        6.78338763       1.90247601       7.24928002       70
H       -5.02008421       9.11302814       8.81543107       71
H        7.25858760       2.43558172       7.84575032       71
C        2.03084171      -2.15017751       9.19863825       72
C        0.20766168      13.69878737       7.46254315       72
H       -4.03895147      13.06726023       9.91340293       73
H        6.27745486      -1.51865037       6.74777846       73
C       -7.60425023      12.35282743       9.83676149       74
C        9.84275362      -0.80421757       6.82441990       74
H       -7.36031844      11.48412409      10.06002132       75
H        9.59882182       0.06448577       6.60116007       75
C       -0.44530934      -0.11451995       7.22428825       76
C        2.68381272      11.66312982       9.43689314       76
H       -0.96420227      -0.66502301       7.76577665       77
H        3.20270565      12.21363287       8.89540475       77
C        6.21559214       8.69372688       8.36724530       78
C       -3.97708876       2.85488298       8.29393610       78
H        6.63149554       8.98584329       9.14532247       79
H       -4.39299216       2.56276657       7.51585893       79
C       -0.07516770       6.89433763       5.67813062       80
C        2.31367108       4.65427223      10.98305077       80
C        0.12663716      -0.52350900       6.09132792       81
C        2.11186622      12.07211886      10.56985348       81
C        3.63904080       6.58846836       6.68613209       82
C       -1.40053741       4.96014150       9.97504930       82
C        6.56732892       9.11419920       7.15431129       83
C       -4.32882554       2.43441066       9.50687010       83
C       -4.24559358      10.24431662       5.46819973       84
C        6.48409697       1.30429324      11.19298166       84
C        1.08177474       3.23329946       6.49786074       85
C        1.15672864       8.31531040      10.16332065       85
C        4.71536331       7.50973421       7.12931952       86
C       -2.47685993       4.03887565       9.53186187       86
C        7.61968490      10.04586689       6.78110083       87
C       -5.38118151       1.50274297       9.88008057       87
C        0.60539314       1.80162646       6.57450218       88
C        1.63311024       9.74698340      10.08667921       88
C       -0.18705764       1.22524209       7.51252669       89
C        2.42556103      10.32336777       9.14865470       89
H       -0.51629636       1.67019071       8.25894762       90
H        2.75479974       9.87841915       8.40223378       90
Zn       1.11925169       5.77430493       8.33059070       91
