202

Zn 1.119300 5.774300 8.330600
Zn 2.133100 5.255100 4.801800
Zn 9.910800 11.850900 7.768100
Zn 8.899300 11.572000 4.591800
S 1.012500 0.720100 5.328700
S 5.571400 8.403500 5.979000
S 13.420900 8.661000 6.383200
S 7.455800 11.391700 -0.068100
O -0.547900 -2.812800 6.059700
O 0.380200 -1.975100 4.246900
O 0.649800 3.981700 7.370900
O 1.838500 3.494400 5.536500
O 3.074500 5.892400 7.574200
O 3.452700 6.529600 5.463200
O 7.662900 10.341300 5.558200
O 8.401800 10.465900 7.632500
O 8.365100 11.460900 2.707400
O 6.853700 12.781400 3.497200
O 7.326900 10.806400 -2.914000
O 5.371200 11.741100 -3.330600
O 15.802600 6.965000 6.822800
O 15.918900 6.190300 4.760100
O 11.234400 10.677200 6.631200
O 10.553200 10.520400 4.503500
O 11.356000 13.298400 8.070700
O 10.684100 10.817100 9.445200
O 8.645600 12.929900 9.033700
N 11.880500 9.060700 10.123300
N 12.536200 14.626300 9.443600
N 6.825800 12.816100 10.416600
C 12.741200 9.811100 10.994700
H 12.458200 10.728000 11.011400
H 13.644400 9.761400 10.673200
H 12.696500 9.446100 11.881100
C 13.111700 14.843100 10.783100
H 12.770000 14.183400 11.389600
H 12.875900 15.720400 11.094700
H 14.068300 14.768700 10.734800
C 12.194400 7.690900 10.016700
H 11.585100 7.270200 9.405200
H 12.118300 7.276700 10.879800
H 13.093600 7.591300 9.693500
C 12.708600 8.794600 4.003700
H 12.263100 9.016300 3.217300
C 6.029300 11.979100 11.332900
H 6.447600 11.120700 11.427900
H 5.146400 11.867400 10.976400
H 5.977000 12.405400 12.191000
C 13.790200 7.885500 4.068700
H 14.130700 7.442800 3.325600
C 5.541500 12.679000 0.884700
H 4.966200 13.115000 1.472800
C 12.958100 15.539600 8.430600
H 12.522100 15.322700 7.604200
H 13.909400 15.471700 8.318900
H 12.728300 16.434700 8.690500
C 6.353300 14.165400 10.148300
H 6.953100 14.600800 9.538500
H 6.315500 14.660700 10.969700
H 5.474700 14.126200 9.760100
C 6.730300 12.135600 1.247900
C 6.197000 11.799900 -1.151300
C 5.287000 12.505000 -0.474800
H 4.530600 12.857000 -0.884700
C 7.344800 12.146500 2.592500
C 5.163400 7.771900 8.363900
H 4.812500 7.385900 9.133700
C 12.406200 9.292900 5.188300
C 14.267000 7.727800 5.294900
C 6.301200 11.415800 -2.589100
C -0.020800 -1.857000 5.428200
C 10.971900 9.646100 9.411900
H 10.496700 9.113000 8.815400
C 11.749800 13.595300 9.198600
H 11.477800 13.067300 9.913400
C 7.912500 12.352800 9.836800
H 8.156500 11.484100 10.060000
C -0.445300 -0.114500 7.224300
H -0.964200 -0.665000 7.765800
C 6.215600 8.693700 8.367200
H 6.631500 8.985800 9.145300
C 15.441600 6.894300 5.678100
C 0.126600 -0.523500 6.091300
C 3.639000 6.588500 6.686100
C 6.567300 9.114200 7.154300
C 11.271200 10.244300 5.468200
C 1.081800 3.233300 6.497900
C 4.715400 7.509700 7.129300
C 7.619700 10.045900 6.781100
C 0.605400 1.801600 6.574500
C -0.187100 1.225200 7.512500
H -0.516300 1.670200 8.258900
Zn 7.585800 10.490400 -4.801800
Zn -0.191900 3.894500 -7.768100
Zn 0.819600 4.173500 -4.591800
S 8.706400 15.025400 -5.328700
S 4.147500 7.342000 -5.979000
S -3.702000 7.084500 -6.383200
S 2.263200 4.353800 0.068100
O 10.266800 18.558300 -6.059700
O 9.338700 17.720600 -4.246900
O 9.069100 11.763700 -7.370900
O 7.880400 12.251100 -5.536500
O 6.644500 9.853000 -7.574200
O 6.266200 9.215800 -5.463200
O 2.056000 5.404100 -5.558200
O 1.317100 5.279500 -7.632500
O 1.353800 4.284500 -2.707400
O 2.865300 2.964000 -3.497200
O 2.392000 4.939100 2.914000
O 4.347700 4.004400 3.330600
O -6.083700 8.780400 -6.822800
O -6.200000 9.555200 -4.760100
O -1.515400 5.068200 -6.631200
O -0.834300 5.225100 -4.503500
O -1.637100 2.447100 -8.070700
O -0.965100 4.928400 -9.445200
O 1.073300 2.815600 -9.033700
N -2.161600 6.684800 -10.123300
N -2.817300 1.119100 -9.443600
N 2.893100 2.929300 -10.416600
C -3.022300 5.934300 -10.994700
H -2.739300 5.017400 -11.011400
H -3.925500 5.984000 -10.673200
H -2.977600 6.299300 -11.881100
C -3.392700 0.902300 -10.783100
H -3.051100 1.562100 -11.389600
H -3.157000 0.025100 -11.094700
H -4.349400 0.976800 -10.734800
C -2.475500 8.054500 -10.016700
H -1.866100 8.475200 -9.405200
H -2.399400 8.468700 -10.879800
H -3.374700 8.154200 -9.693500
C -2.989600 6.950800 -4.003700
H -2.544200 6.729100 -3.217300
C 3.689600 3.766400 -11.332900
H 3.271300 4.624800 -11.427900
H 4.572500 3.878100 -10.976400
H 3.741900 3.340100 -12.191000
C -4.071300 7.860000 -4.068700
H -4.411800 8.302600 -3.325600
C 4.177400 3.066500 -0.884700
H 4.752800 2.630500 -1.472800
C -3.239200 0.205800 -8.430600
H -2.803200 0.422800 -7.604200
H -4.190500 0.273700 -8.318900
H -3.009300 -0.689200 -8.690500
C 3.365700 1.580100 -10.148300
H 2.765800 1.144600 -9.538500
H 3.403400 1.084700 -10.969700
H 4.244200 1.619300 -9.760100
C 2.988600 3.609900 -1.247900
C 3.521900 3.945500 1.151300
C 4.432000 3.240500 0.474800
H 5.188300 2.888400 0.884700
C 2.374100 3.599000 -2.592500
C 4.555500 7.973600 -8.363900
H 4.906400 8.359600 -9.133700
C -2.687300 6.452500 -5.188300
C -4.548100 8.017700 -5.294900
C 3.417700 4.329700 2.589100
C 9.739800 17.602500 -5.428200
C -1.253000 6.099300 -9.411900
H -0.777800 6.632400 -8.815400
C -2.030800 2.150200 -9.198600
H -1.758900 2.678200 -9.913400
C 1.806400 3.392600 -9.836800
H 1.562400 4.261300 -10.060000
C 10.164200 15.860000 -7.224300
H 10.683100 16.410500 -7.765800
C 3.503300 7.051700 -8.367200
H 3.087400 6.759600 -9.145300
C -5.722700 8.851100 -5.678100
C 9.592300 16.269000 -6.091300
C 6.079900 9.157000 -6.686100
C 3.151600 6.631300 -7.154300
C -1.552300 5.501100 -5.468200
C 8.637100 12.512200 -6.497900
C 5.003600 8.235700 -7.129300
C 2.099200 5.699600 -6.781100
C 9.113500 13.943800 -6.574500
C 9.906000 14.520200 -7.512500
H 10.235200 14.075300 -8.258900
Zn -6.917100 9.971200 -8.330600
Zn 8.599700 9.971200 -8.330600
Zn 16.636100 5.774300 8.330600
Zn 17.649900 5.255100 4.801800
Zn -7.931000 10.490400 -4.801800
Zn 0.191900 -3.894500 7.768100
Zn 9.527000 19.640000 -7.768100
Zn -0.819600 -4.173500 4.591800
Zn 10.538500 19.918900 -4.591800
O 9.171100 12.932700 6.059700
O 0.547900 2.812800 -6.059700
O 10.099100 13.770300 4.246900
O -0.380200 1.975100 -4.246900
O 1.588700 7.566900 9.290300
O -0.835900 5.656200 9.087000
O 0.285800 6.965000 6.822800
O 1.952700 4.583600 9.838400
O 0.402100 6.190300 4.760100
O 9.316800 9.555200 -4.760100
