40

N -0.893600 -1.258000 -1.698500
N 0.471100 -1.209800 -1.835500
C 0.967600 -0.490100 -0.848700
N -0.083000 -0.056400 -0.077900
C -1.233400 -0.552100 -0.638200
C -2.591700 -0.341300 -0.139200
C -3.629100 -1.145900 -0.637700
C -4.947300 -0.965000 -0.201600
C -5.240500 0.002300 0.762500
C -4.217700 0.809700 1.268300
C -2.899700 0.641500 0.812600
C -4.568700 1.836800 2.279000
O -5.687800 2.091800 2.678500
O -3.490800 2.494000 2.741800
C -6.051000 -1.812600 -0.707100
O -6.962600 -2.195100 0.004300
O -5.968600 -2.077700 -2.026300
C 2.379700 -0.185500 -0.617000
C 3.316400 -0.454300 -1.628300
C 4.675200 -0.157000 -1.451200
C 5.117000 0.404300 -0.247500
C 4.199200 0.647000 0.776400
C 2.837300 0.365100 0.587200
C 4.602100 1.249100 2.068600
O 3.862100 1.989100 2.694300
O 5.817300 0.866100 2.504100
C 5.683400 -0.417500 -2.505900
O 6.882400 -0.251100 -2.381000
O 5.143100 -0.867000 -3.648300
H -0.020600 0.520400 0.745600
H -3.392100 -1.937700 -1.348700
H -6.264500 0.123700 1.117100
H -2.123700 1.293300 1.205400
H -3.866000 3.123600 3.395500
H -5.270100 -1.601100 -2.513000
H 2.975500 -0.891100 -2.567800
H 6.165900 0.672300 -0.135900
H 2.151200 0.579000 1.404300
H 6.252400 0.152900 2.000600
H 5.903400 -0.995300 -4.254100
