159

Cu 3.412600 6.676400 11.845100
Cu 2.517500 4.965500 13.692900
Cu -2.297300 7.376000 19.603000
Cu -3.118500 9.909900 19.603000
O 4.053000 5.004700 11.053000
O 3.408200 3.581200 12.651800
O 4.907900 -1.008900 12.449900
O 6.379200 -1.683400 10.913000
O 9.153800 4.181400 1.396500
O 9.822800 6.304500 1.409800
O 8.235500 9.284900 4.978800
O 6.854300 8.502000 6.549400
O 1.779100 6.589400 14.472100
O 2.531200 8.041200 12.957600
O -1.064500 7.992100 18.186900
O -1.761000 10.122000 18.226100
O 4.155800 8.115400 10.471100
O 1.434400 3.777300 15.161000
H 1.181600 4.275800 15.803900
H 0.744600 3.428800 14.804200
O -1.686000 5.301500 19.603000
H -1.243600 5.152600 20.312600
O -3.755200 11.944500 19.603000
H -3.585200 12.344600 20.332200
N 6.480400 3.573300 7.133500
H 6.307200 4.294700 7.566800
N 6.679500 1.481300 6.602700
N 7.113800 2.212600 5.541400
N 0.000000 13.488400 15.110400
H 0.000000 13.488400 15.968600
N 0.110600 12.806200 13.049700
C 4.640000 2.754100 10.829900
C 4.736600 1.494800 11.392500
H 4.356800 1.327300 12.224400
C 5.408600 0.471600 10.708700
C 5.810000 1.983600 8.878600
C 5.188200 2.979000 9.580000
H 5.133700 3.828000 9.205600
C 5.938400 0.710800 9.462800
H 6.380000 0.032400 9.005600
C 6.312600 2.330000 7.553000
C 6.968100 3.481900 5.910300
C 8.411600 5.567700 3.131400
C 8.270800 6.841000 3.663400
H 8.594800 7.577800 3.195300
C 7.642500 7.018800 4.900800
C 7.196100 5.902000 5.601000
H 6.779300 6.018500 6.425900
C 7.359800 4.628400 5.099900
C 7.951700 4.454700 3.844900
H 8.039100 3.601400 3.485400
C 3.969400 3.860400 11.580700
C 5.586600 -0.854900 11.407400
C 9.187800 5.339800 1.867000
C 7.561900 8.373300 5.526500
C 1.114100 8.814100 14.685000
C 0.449400 8.512800 15.864300
H 0.501800 7.653300 16.215600
C -0.299200 9.486900 16.534700
C -0.348000 10.769100 16.000800
H -0.814700 11.438200 16.450800
C 0.283800 11.060500 14.815600
C 1.027000 10.102000 14.148700
H 1.462100 10.313200 13.353600
C 0.156700 12.444400 14.307100
C 1.873800 7.737800 13.971500
C -1.087700 9.157300 17.751700
C 5.105900 8.382500 9.801500
H 5.762200 7.726200 9.801500
O -1.779100 20.387400 14.472100
O -2.531200 18.935600 12.957600
O 1.064500 18.984700 18.186900
O 1.761000 16.854800 18.226100
N -0.110600 14.170600 13.049700
C -1.114100 18.162700 14.685000
C -0.449400 18.464000 15.864300
H -0.501800 19.323500 16.215600
C 0.299200 17.489900 16.534700
C 0.348000 16.207700 16.000800
H 0.814700 15.538600 16.450800
C -0.283800 15.916300 14.815600
C -1.027000 16.874800 14.148700
H -1.462100 16.663600 13.353600
C -0.156700 14.532400 14.307100
C -1.873800 19.239000 13.971500
C 1.087700 17.819500 17.751700
O 5.373000 9.332600 9.131900
H -1.243600 5.152600 18.893400
H -3.585200 12.344600 18.873800
Cu -6.676400 3.412600 11.845100
Cu -4.965500 2.517500 13.692900
O -5.004700 4.053000 11.053000
O -3.581200 3.408200 12.651800
O 1.008900 4.907900 12.449900
O 1.683400 6.379200 10.913000
O -4.181400 9.153800 1.396500
O -6.304500 9.822800 1.409800
O -9.284900 8.235500 4.978800
O -8.502000 6.854300 6.549400
O -3.777300 1.434400 15.161000
H -4.275800 1.181600 15.803900
H -3.428800 0.744600 14.804200
N -3.573300 6.480400 7.133500
H -4.294700 6.307200 7.566800
N -1.481300 6.679500 6.602700
N -2.212600 7.113800 5.541400
C -2.754100 4.640000 10.829900
C -1.494800 4.736600 11.392500
H -1.327300 4.356800 12.224400
C -0.471600 5.408600 10.708700
C -1.983600 5.810000 8.878600
C -2.979000 5.188200 9.580000
H -3.828000 5.133700 9.205600
C -0.710800 5.938400 9.462800
H -0.032400 6.380000 9.005600
C -2.330000 6.312600 7.553000
C -3.481900 6.968100 5.910300
C -5.567700 8.411600 3.131400
C -6.841000 8.270800 3.663400
H -7.577800 8.594800 3.195300
C -7.018800 7.642500 4.900800
C -5.902000 7.196100 5.601000
H -6.018500 6.779300 6.425900
C -4.628400 7.359800 5.099900
C -4.454700 7.951700 3.844900
H -3.601400 8.039100 3.485400
C -3.860400 3.969400 11.580700
C 0.854900 5.586600 11.407400
C -5.339800 9.187800 1.867000
C -8.373300 7.561900 5.526500
Cu -3.412600 20.300400 11.845100
Cu 6.676400 -3.412600 11.845100
Cu -10.075800 6.812000 7.757900
Cu 6.812000 10.075800 7.757900
Cu -2.517500 22.011300 13.692900
Cu 4.965500 -2.517500 13.692900
Cu -10.970900 8.522900 5.910100
Cu 8.522900 10.970900 5.910100
Cu 2.297300 19.600800 19.603000
Cu 11.191100 6.112400 0.000000
Cu -6.112400 11.191100 0.000000
Cu 3.118500 17.066900 19.603000
Cu 10.369900 3.578500 0.000000
Cu -3.578500 10.369900 0.000000
O -4.907900 1.008900 12.449900
O -6.379200 1.683400 10.913000
O -4.334600 9.307000 18.206500
O -4.334600 9.307000 20.999500
O -3.665600 7.183900 18.193200
O -3.665600 7.183900 21.012800
O -5.252900 4.203500 14.624200
O 4.203500 5.252900 14.624200
O -6.634100 4.986400 13.053600
O 4.986400 6.634100 13.053600
O -6.589400 1.779100 14.472100
O -8.041200 2.531200 12.957600
O -1.064500 7.992100 21.019100
O -1.761000 10.122000 20.979900
O -8.115400 4.155800 10.471100
