324
Lattice="18.6844 0.0 0.0 -9.342199999999997 16.181165054469968 0.0 0.0 0.0 32.862" Properties=species:S:1:pos:R:3:spacegroup_kinds:I:1 spacegroup="R -3 m" unit_cell=conventional pbc="T T T"
C       12.05050378       8.35433552       3.79030308        0
C        5.42408132       6.25887464       3.79030308        0
C       10.55201490       1.56795489       3.79030308        0
C        1.20981490      14.61321016      29.07169692        0
C        2.70830378       7.82682954      29.07169692        0
C       -3.91811868       9.92229041      29.07169692        0
C       -2.70830378       7.82682954      29.07169692        0
C        3.91811868       9.92229041      29.07169692        0
C       -1.20981490      14.61321016      29.07169692        0
C        8.13238510       1.56795489       3.79030308        0
C        6.63389622       8.35433552       3.79030308        0
C       13.26031868       6.25887464       3.79030308        0
C        2.70830378      13.74805720      14.74430308        0
C       -3.91811868      11.65259633      14.74430308        0
C        1.20981490       6.96167658      14.74430308        0
C        1.20981490       3.82576679       7.16369692        0
C       -6.63389622      13.22055122       7.16369692        0
C        5.42408132      15.31601210       7.16369692        0
C        6.63389622      13.22055122       7.16369692        0
C       -5.42408132      15.31601210       7.16369692        0
C       -1.20981490       3.82576679       7.16369692        0
C       -1.20981490       6.96167658      14.74430308        0
C       -2.70830378      13.74805720      14.74430308        0
C        3.91811868      11.65259633      14.74430308        0
C        2.70830378       2.96061383      25.69830308        0
C       14.76628132       0.86515296      25.69830308        0
C       10.55201490      12.35539826      25.69830308        0
C       10.55201490       9.21948848      18.11769692        0
C       12.05050378       2.43310785      18.11769692        0
C        5.42408132       4.52856873      18.11769692        0
C        6.63389622       2.43310785      18.11769692        0
C       13.26031868       4.52856873      18.11769692        0
C        8.13238510       9.21948848      18.11769692        0
C        8.13238510      12.35539826      25.69830308        0
C       15.97609622       2.96061383      25.69830308        0
C        3.91811868       0.86515296      25.69830308        0
C       12.51854800       8.60190734       2.52938814        1
C        4.97565572       6.54042692       2.52938814        1
C       10.53239628       1.03883080       2.52938814        1
C        1.19019628      15.14233426      30.33261186        1
C        3.17634800       7.57925771      30.33261186        1
C       -4.36654428       9.64073814      30.33261186        1
C       -3.17634800       7.57925771      30.33261186        1
C        4.36654428       9.64073814      30.33261186        1
C       -1.19019628      15.14233426      30.33261186        1
C        8.15200372       1.03883080       2.52938814        1
C        6.16585200       8.60190734       2.52938814        1
C       13.70874428       6.54042692       2.52938814        1
C        3.17634800      13.99562903      13.48338814        1
C       -4.36654428      11.93414860      13.48338814        1
C        1.19019628       6.43255248      13.48338814        1
C        1.19019628       4.35489089       8.42461186        1
C       -6.16585200      12.97297940       8.42461186        1
C        4.97565572      15.03445982       8.42461186        1
C        6.16585200      12.97297940       8.42461186        1
C       -4.97565572      15.03445982       8.42461186        1
C       -1.19019628       4.35489089       8.42461186        1
C       -1.19019628       6.43255248      13.48338814        1
C       -3.17634800      13.99562903      13.48338814        1
C        4.36654428      11.93414860      13.48338814        1
C        3.17634800       3.20818566      24.43738814        1
C       14.31785572       1.14670523      24.43738814        1
C       10.53239628      11.82627417      24.43738814        1
C       10.53239628       9.74861257      19.37861186        1
C       12.51854800       2.18553603      19.37861186        1
C        4.97565572       4.24701645      19.37861186        1
C        6.16585200       2.18553603      19.37861186        1
C       13.70874428       4.24701645      19.37861186        1
C        8.15200372       9.74861257      19.37861186        1
C        8.15200372      11.82627417      24.43738814        1
C       15.50805200       3.20818566      24.43738814        1
C        4.36654428       1.14670523      24.43738814        1
H       12.27658502       9.38993008       2.09988180        2
H        4.41418950       5.93686946       2.09988180        2
H       11.33582548       0.85436551       2.09988180        2
H        1.99362548      15.32679954      30.76211820        2
H        2.93438502       6.79123497      30.76211820        2
H       -4.92801050      10.24429560      30.76211820        2
H       -2.93438502       6.79123497      30.76211820        2
H        4.92801050      10.24429560      30.76211820        2
H       -1.99362548      15.32679954      30.76211820        2
H        7.34857452       0.85436551       2.09988180        2
H        6.40781498       9.38993008       2.09988180        2
H       14.27021050       5.93686946       2.09988180        2
H        2.93438502      14.78365177      13.05388180        2
H       -4.92801050      11.33059114      13.05388180        2
H        1.99362548       6.24808720      13.05388180        2
H        1.99362548       4.53935617       8.85411820        2
H       -6.40781498      12.18495666       8.85411820        2
H        4.41418950      15.63801728       8.85411820        2
H        6.40781498      12.18495666       8.85411820        2
H       -4.41418950      15.63801728       8.85411820        2
H       -1.99362548       4.53935617       8.85411820        2
H       -1.99362548       6.24808720      13.05388180        2
H       -2.93438502      14.78365177      13.05388180        2
H        4.92801050      11.33059114      13.05388180        2
H        2.93438502       3.99620840      24.00788180        2
H       13.75638950       0.54314777      24.00788180        2
H       11.33582548      11.64180888      24.00788180        2
H       11.33582548       9.93307785      19.80811820        2
H       12.27658502       1.39751329      19.80811820        2
H        4.41418950       4.85057391      19.80811820        2
H        6.40781498       1.39751329      19.80811820        2
H       14.27021050       4.85057391      19.80811820        2
H        7.34857452       9.93307785      19.80811820        2
H        7.34857452      11.64180888      24.00788180        2
H       15.75001498       3.99620840      24.00788180        2
H        4.92801050       0.54314777      24.00788180        2
C       11.09012562       9.29284309       4.45838754        3
C        5.09149900       4.95790897       4.45838754        3
C       11.84497538       1.93041299       4.45838754        3
C        2.50277538      14.25075206      28.40361246        3
C        1.74792562       6.88832196      28.40361246        3
C       -4.25070100      11.22325608      28.40361246        3
C       -1.74792562       6.88832196      28.40361246        3
C        4.25070100      11.22325608      28.40361246        3
C       -2.50277538      14.25075206      28.40361246        3
C        6.83942462       1.93041299       4.45838754        3
C        7.59427438       9.29284309       4.45838754        3
C       13.59290100       4.95790897       4.45838754        3
C        1.74792562      14.68656478      15.41238754        3
C       -4.25070100      10.35163066      15.41238754        3
C        2.50277538       7.32413468      15.41238754        3
C        2.50277538       3.46330869       6.49561246        3
C       11.09012562      12.28204365       6.49561246        3
C       14.43369900       0.43581271       6.49561246        3
C        7.59427438      12.28204365       6.49561246        3
C        4.25070100       0.43581271       6.49561246        3
C       16.18162462       3.46330869       6.49561246        3
C       -2.50277538       7.32413468      15.41238754        3
C       -1.74792562      14.68656478      15.41238754        3
C        4.25070100      10.35163066      15.41238754        3
C        1.74792562       3.89912141      26.36638754        3
C        5.09149900      15.74535234      26.36638754        3
C       -6.83942462      12.71785636      26.36638754        3
C       11.84497538       8.85703038      17.44961246        3
C       11.09012562       1.49460028      17.44961246        3
C        5.09149900       5.82953440      17.44961246        3
C        7.59427438       1.49460028      17.44961246        3
C       13.59290100       5.82953440      17.44961246        3
C        6.83942462       8.85703038      17.44961246        3
C        6.83942462      12.71785636      26.36638754        3
C       -1.74792562       3.89912141      26.36638754        3
C       -5.09149900      15.74535234      26.36638754        3
O       10.70046246       8.97973755       5.61710166        4
O        5.55748794       4.77700355       5.61710166        4
O       11.76864961       2.42442396       5.61710166        4
O        2.42644961      13.75674109      27.24489834        4
O        1.35826246       7.20142751      27.24489834        4
O       -3.78471206      11.40416151      27.24489834        4
O       -1.35826246       7.20142751      27.24489834        4
O        3.78471206      11.40416151      27.24489834        4
O       -2.42644961      13.75674109      27.24489834        4
O        6.91575039       2.42442396       5.61710166        4
O        7.98393754       8.97973755       5.61710166        4
O       13.12691206       4.77700355       5.61710166        4
O        1.35826246      14.37345923      16.57110166        4
O       -3.78471206      10.17072523      16.57110166        4
O        2.42644961       7.81814564      16.57110166        4
O        2.42644961       2.96929772       5.33689834        4
O       10.70046246      12.59514919       5.33689834        4
O       14.89968794       0.61671814       5.33689834        4
O        7.98393754      12.59514919       5.33689834        4
O        3.78471206       0.61671814       5.33689834        4
O       16.25795039       2.96929772       5.33689834        4
O       -2.42644961       7.81814564      16.57110166        4
O       -1.35826246      14.37345923      16.57110166        4
O        3.78471206      10.17072523      16.57110166        4
O        1.35826246       3.58601586      27.52510166        4
O        5.55748794      15.56444692      27.52510166        4
O       -6.91575039      13.21186733      27.52510166        4
O       11.76864961       8.36301941      16.29089834        4
O       10.70046246       1.80770582      16.29089834        4
O        5.55748794       6.01043982      16.29089834        4
O        7.98393754       1.80770582      16.29089834        4
O       13.12691206       6.01043982      16.29089834        4
O        6.91575039       8.36301941      16.29089834        4
O        6.91575039      13.21186733      27.52510166        4
O       -1.35826246       3.58601586      27.52510166        4
O       -5.55748794      15.56444692      27.52510166        4
O       10.70896386      10.29025010       3.77814414        5
O        4.41830007       4.12910970       3.77814414        5
O       12.89933607       1.76180525       3.77814414        5
O        3.55713607      14.41935980      29.08385586        5
O        1.36676386       5.89091495      29.08385586        5
O       -4.92389993      12.05205536      29.08385586        5
O       -1.36676386       5.89091495      29.08385586        5
O        4.92389993      12.05205536      29.08385586        5
O       -3.55713607      14.41935980      29.08385586        5
O        5.78506393       1.76180525       3.77814414        5
O        7.97543614      10.29025010       3.77814414        5
O       14.26609993       4.12910970       3.77814414        5
O        1.36676386      15.68397179      14.73214414        5
O       -4.92389993       9.52283138      14.73214414        5
O        3.55713607       7.15552694      14.73214414        5
O        3.55713607       3.63191643       7.17585586        5
O       10.70896386      11.28463663       7.17585586        5
O       13.76050007       1.26461199       7.17585586        5
O        7.97543614      11.28463663       7.17585586        5
O        4.92389993       1.26461199       7.17585586        5
O       15.12726393       3.63191643       7.17585586        5
O       -3.55713607       7.15552694      14.73214414        5
O       -1.36676386      15.68397179      14.73214414        5
O        4.92389993       9.52283138      14.73214414        5
O        1.36676386       4.89652842      25.68614414        5
O        4.41830007      14.91655307      25.68614414        5
O       -5.78506393      12.54924862      25.68614414        5
O       12.89933607       9.02563812      18.12985586        5
O       10.70896386       0.49719326      18.12985586        5
O        4.41830007       6.65833367      18.12985586        5
O        7.97543614       0.49719326      18.12985586        5
O       14.26609993       6.65833367      18.12985586        5
O        5.78506393       9.02563812      18.12985586        5
O        5.78506393      12.54924862      25.68614414        5
O       -1.36676386       4.89652842      25.68614414        5
O       -4.41830007      14.91655307      25.68614414        5
Cu       9.34220000      10.03070422       6.56681346        6
Cu       5.32645533       3.07523042       6.56681346        6
Cu      13.35794467       3.07523042       6.56681346        6
Cu       4.01574467      13.10593464      26.29518654        6
Cu       0.00000000       6.15046084      26.29518654        6
Cu      -4.01574467      13.10593464      26.29518654        6
Cu       0.00000000      15.42442590      17.52081346        6
Cu      -4.01574467       8.46895210      17.52081346        6
Cu       4.01574467       8.46895210      17.52081346        6
Cu       4.01574467       2.31849127       4.38718654        6
Cu       9.34220000      11.54418252       4.38718654        6
Cu      14.66865533       2.31849127       4.38718654        6
Cu      -0.00000000       4.63698253      28.47481346        6
Cu       5.32645533      13.86267379      28.47481346        6
Cu      -5.32645533      13.86267379      28.47481346        6
Cu      13.35794467       7.71221295      15.34118654        6
Cu       9.34220000       0.75673915      15.34118654        6
Cu       5.32645533       7.71221295      15.34118654        6
O        9.34220000       8.86404222       8.37258036        7
O        6.33681426       3.65856142       8.37258036        7
O       12.34758574       3.65856142       8.37258036        7
O        3.00538574      12.52260364      24.48941964        7
O        0.00000000       7.31712284      24.48941964        7
O       -3.00538574      12.52260364      24.48941964        7
O        0.00000000      14.25776390      19.32658036        7
O       -3.00538574       9.05228310      19.32658036        7
O        3.00538574       9.05228310      19.32658036        7
O        3.00538574       1.73516027       2.58141964        7
O        9.34220000      12.71084452       2.58141964        7
O       15.67901426       1.73516027       2.58141964        7
O        0.00000000       3.47032053      30.28058036        7
O        6.33681426      14.44600479      30.28058036        7
O       -6.33681426      14.44600479      30.28058036        7
O       12.34758574       7.12888195      13.53541964        7
O        9.34220000       1.92340115      13.53541964        7
O        6.33681426       7.12888195      13.53541964        7
C       13.34766825       7.70627986       1.87642020        8
C        5.33673175       7.70627986       1.87642020        8
C        9.34220000       0.76860534       1.87642020        8
C        0.00000000      15.41255971      30.98557980        8
C        4.00546825       8.47488520      30.98557980        8
C       -4.00546825       8.47488520      30.98557980        8
C        4.00546825      13.10000154      12.83042020        8
C       -4.00546825      13.10000154      12.83042020        8
C        0.00000000       6.16232702      12.83042020        8
C        0.00000000       4.62511634       9.07757980        8
C       -5.33673175      13.86860688       9.07757980        8
C        5.33673175      13.86860688       9.07757980        8
C        4.00546825       2.31255817      23.78442020        8
C       14.67893175       2.31255817      23.78442020        8
C        9.34220000      11.55604871      23.78442020        8
C        9.34220000      10.01883803      20.03157980        8
C       13.34766825       3.08116351      20.03157980        8
C        5.33673175       3.08116351      20.03157980        8
C       13.83252843       7.98621401       0.54813816        9
C        4.85187157       7.98621401       0.54813816        9
C        9.34220000       0.20873703       0.54813816        9
C        0.00000000      15.97242803      32.31386184        9
C        4.49032843       8.19495104      32.31386184        9
C       -4.49032843       8.19495104      32.31386184        9
C        4.49032843      13.37993570      11.50213816        9
C       -4.49032843      13.37993570      11.50213816        9
C        0.00000000       5.60245871      11.50213816        9
C        0.00000000       5.18498466      10.40586184        9
C       -4.85187157      13.58867273      10.40586184        9
C        4.85187157      13.58867273      10.40586184        9
C        4.49032843       2.59249233      22.45613816        9
C       14.19407157       2.59249233      22.45613816        9
C        9.34220000      10.99618040      22.45613816        9
C        9.34220000      10.57870634      21.35986184        9
C       13.83252843       2.80122936      21.35986184        9
C        4.85187157       2.80122936      21.35986184        9
C       12.42279045       7.17230141       4.44097068       10
C        6.26160955       7.17230141       4.44097068       10
C        9.34220000       1.83656223       4.44097068       10
C        0.00000000      14.34460282      28.42102932       10
C        3.08059045       9.00886364      28.42102932       10
C       -3.08059045       9.00886364      28.42102932       10
C        3.08059045      12.56602310      15.39497068       10
C       -3.08059045      12.56602310      15.39497068       10
C        0.00000000       7.23028392      15.39497068       10
C        0.00000000       3.55715945       6.51302932       10
C       -6.26160955      14.40258533       6.51302932       10
C        6.26160955      14.40258533       6.51302932       10
C        3.08059045       1.77857973      26.34897068       10
C       15.60380955       1.77857973      26.34897068       10
C        9.34220000      12.62400560      26.34897068       10
C        9.34220000       8.95088114      17.46702932       10
C       12.42279045       3.61514196      17.46702932       10
C        6.26160955       3.61514196      17.46702932       10
H       12.11589918       6.99511765       5.30064060       11
H        6.56850082       6.99511765       5.30064060       11
H        9.34220000       2.19092975       5.30064060       11
H        0.00000000      13.99023531      27.56135940       11
H        2.77369918       9.18604740      27.56135940       11
H       -2.77369918       9.18604740      27.56135940       11
H        2.77369918      12.38883934      16.25464060       11
H       -2.77369918      12.38883934      16.25464060       11
H       -0.00000000       7.58465143      16.25464060       11
H       -0.00000000       3.20279194       5.65335940       11
H       -6.56850082      14.57976909       5.65335940       11
H        6.56850082      14.57976909       5.65335940       11
H        2.77369918       1.60139597      27.20864060       11
H       15.91070082       1.60139597      27.20864060       11
H        9.34220000      12.97837312      27.20864060       11
H        9.34220000       8.59651362      16.60735940       11
H       12.11589918       3.79232572      16.60735940       11
H        6.56850082       3.79232572      16.60735940       11
