36

C -0.570300 -0.130900 0.041900
C 0.623800 -0.002200 0.066900
C 2.045700 0.143200 0.093800
C 2.817400 -0.346000 -0.962500
C 4.210600 -0.210800 -0.932200
C 4.841500 0.400100 0.159600
C 4.058100 0.895400 1.210600
C 4.674700 1.506500 2.409400
O 4.282600 1.285300 3.540300
O 5.682600 2.352400 2.116200
C 2.664500 0.761400 1.182000
C 4.992100 -0.792900 -2.046600
O 4.719300 -1.863400 -2.557900
O 6.005000 -0.002400 -2.454400
C -1.990700 -0.291000 0.008900
C -2.737400 0.309700 -1.007600
C -4.128200 0.143800 -1.051800
C -4.773300 -0.621600 -0.072000
C -4.021700 -1.202800 0.956300
C -4.661700 -2.027400 2.005900
O -4.157400 -3.045700 2.444100
O -5.828200 -1.516700 2.450500
C -2.630800 -1.050900 0.989400
C -4.874700 0.790700 -2.156800
O -4.385900 1.420100 -3.074900
O -6.203700 0.627200 -2.042700
H 2.340800 -0.850900 -1.802600
H 5.927400 0.423600 0.224200
H 5.766500 2.602400 1.178700
H 2.068500 1.122900 2.020200
H 5.990900 0.910600 -2.116700
H -2.237200 0.901400 -1.773500
H -5.846500 -0.788500 -0.129100
H -6.042500 -0.618800 2.134900
H -2.052600 -1.530300 1.779300
H -6.568800 1.083500 -2.831700
