48

Cu -9.342200 10.030700 6.566800
C -6.633900 8.354300 3.790300
C -6.165900 8.601900 2.529400
H -6.407800 9.389900 2.099900
C -5.337200 7.707100 1.876400
C -4.851400 7.985400 0.548100
C -6.261600 7.172300 4.441000
H -6.568500 6.995100 5.300600
C -7.594300 9.292800 4.458400
O -7.983900 8.979700 5.617100
O -7.975400 10.290300 3.778100
O -9.341800 8.864000 8.372600
Cu -5.326500 3.075200 6.566800
Cu -9.342200 11.544200 4.387200
Cu -4.015700 2.318500 4.387200
Cu 0.000000 6.150500 -6.566800
Cu 0.000000 4.637000 -4.387200
Cu -4.015700 13.105900 -6.566800
Cu -5.326500 13.862700 -4.387200
C -5.424100 6.258900 3.790300
C -3.918100 9.922300 -3.790300
C -2.708300 7.826800 -3.790300
C -4.975700 6.540400 2.529400
C -4.366500 9.640700 -2.529400
C -3.176300 7.579300 -2.529400
H -4.414200 5.936900 2.099900
H -2.934400 6.791200 -2.099900
H -4.928000 10.244300 -2.099900
C -4.005900 8.475700 -1.876400
C -4.489900 8.194100 -0.548100
C -3.080600 9.008900 -4.441000
H -2.773700 9.186000 -5.300600
C -5.091500 4.957900 4.458400
C -1.747900 6.888300 -4.458400
C -4.250700 11.223300 -4.458400
O -5.557500 4.777000 5.617100
O -1.358300 7.201400 -5.617100
O -3.784700 11.404200 -5.617100
O -10.700500 8.979700 5.617100
O -6.915800 2.424400 5.617100
O -4.418300 4.129100 3.778100
O -1.366800 5.890900 -3.778100
O -4.923900 12.052100 -3.778100
O -7.975400 11.284600 7.175900
O -10.709000 11.284600 7.175900
O -3.557100 3.631900 7.175900
O -4.923900 1.264600 7.175900
O -6.336600 3.658900 8.372600
